     Program PWSCF v.7.0 starts on 25Mar2024 at 18:15:37

     R & G space division:  proc/nbgrp/npool/nimage =      10

     Reading input from 110_surface.in
Warning: card &CELL ignored
Warning: card / ignored

     Current dimensions of program PWSCF are:
     Max number of different atomic species (ntypx) = 10
     Max number of k-points (npk) =  40000
     Max angular momentum in pseudopotentials (lmaxx) =  4
     file Au.pbe-n-kjpaw_psl.1.0.0.UPF: wavefunction(s)  6S 5D renormalized
     Message from routine setup:
     using ibrav=0 with symmetry is DISCOURAGED, use correct ibrav instead

     Using Slab Decomposition

     bravais-lattice index     =            0
     lattice parameter (alat)  =       7.7101  a.u.
     unit-cell volume          =    4224.0538 (a.u.)^3
     number of atoms/cell      =           24
     number of atomic types    =            1
     number of electrons       =       264.00
     number of Kohn-Sham states=          158
     kinetic-energy cutoff     =      50.0000  Ry
     charge density cutoff     =     200.0000  Ry
     scf convergence threshold =      1.0E-06
     mixing beta               =       0.1000
     number of iterations used =            8  plain     mixing
     Exchange-correlation= SLA  PW   PBX  PBC
                           (   1   4   3   4   0   0   0)

     celldm(1)=   7.710083  celldm(2)=   0.000000  celldm(3)=   0.000000
     celldm(4)=   0.000000  celldm(5)=   0.000000  celldm(6)=   0.000000

     crystal axes: (cart. coord. in units of alat)
               a(1) = (   1.000000   0.000000   0.000000 )
               a(2) = (   0.000000   0.707107   0.000000 )
               a(3) = (   0.000000   0.000000  13.033689 )

     reciprocal axes: (cart. coord. in units 2 pi/alat)
               b(1) = (  1.000000  0.000000  0.000000 )
               b(2) = (  0.000000  1.414214  0.000000 )
               b(3) = (  0.000000  0.000000  0.076724 )

     PseudoPot. # 1 for Au read from file:
     ./Au.pbe-n-kjpaw_psl.1.0.0.UPF
     MD5 check sum: 4db85c736373c707a97ce4c36c2a9d23
     Pseudo is Projector augmented-wave + core cor, Zval = 11.0
     Generated using &quot;atomic&quot; code by A. Dal Corso  v.6.3
     Shape of augmentation charge: PSQ
     Using radial grid of 1279 points,  6 beta functions with:
                l(1) =   0
                l(2) =   0
                l(3) =   1
                l(4) =   1
                l(5) =   2
                l(6) =   2
     Q(r) pseudized with 0 coefficients

     atomic species   valence    mass     pseudopotential
        Au            11.00   196.96657     Au( 1.00)

      8 Sym. Ops., with inversion, found ( 4 have fractional translation)

   Cartesian axes

     site n.     atom                  positions (alat units)
         1           Au  tau(   1) = (   0.5000000   0.3535534   2.4509804  )
         2           Au  tau(   2) = (   0.0000000   0.0000000   2.8045338  )
         3           Au  tau(   3) = (   0.5000000   0.3535534   3.1580872  )
         4           Au  tau(   4) = (   0.0000000   0.0000000   3.5116406  )
         5           Au  tau(   5) = (   0.5000000   0.3535534   3.8651940  )
         6           Au  tau(   6) = (   0.0000000   0.0000000   4.2187473  )
         7           Au  tau(   7) = (   0.5000000   0.3535534   4.5723007  )
         8           Au  tau(   8) = (   0.0000000   0.0000000   4.9258541  )
         9           Au  tau(   9) = (   0.5000000   0.3535534   5.2794075  )
        10           Au  tau(  10) = (   0.0000000   0.0000000   5.6329609  )
        11           Au  tau(  11) = (   0.5000000   0.3535534   5.9865143  )
        12           Au  tau(  12) = (   0.0000000   0.0000000   6.3400677  )
        13           Au  tau(  13) = (   0.5000000   0.3535534   6.6936211  )
        14           Au  tau(  14) = (   0.0000000   0.0000000   7.0471745  )
        15           Au  tau(  15) = (   0.5000000   0.3535534   7.4007279  )
        16           Au  tau(  16) = (   0.0000000   0.0000000   7.7542813  )
        17           Au  tau(  17) = (   0.5000000   0.3535534   8.1078346  )
        18           Au  tau(  18) = (   0.0000000   0.0000000   8.4613880  )
        19           Au  tau(  19) = (   0.5000000   0.3535534   8.8149414  )
        20           Au  tau(  20) = (   0.0000000   0.0000000   9.1684948  )
        21           Au  tau(  21) = (   0.5000000   0.3535534   9.5220482  )
        22           Au  tau(  22) = (   0.0000000   0.0000000   9.8756016  )
        23           Au  tau(  23) = (   0.5000000   0.3535534  10.2291550  )
        24           Au  tau(  24) = (   0.0000000   0.0000000  10.5827084  )

     number of k points=    35  Gaussian smearing, width (Ry)=  0.2000
                       cart. coord. in units 2pi/alat
        k(    1) = (   0.0000000   0.0000000   0.0000000), wk =   0.0208333
        k(    2) = (   0.0000000   0.1178511   0.0000000), wk =   0.0416667
        k(    3) = (   0.0000000   0.2357023   0.0000000), wk =   0.0416667
        k(    4) = (   0.0000000   0.3535534   0.0000000), wk =   0.0416667
        k(    5) = (   0.0000000   0.4714045   0.0000000), wk =   0.0416667
        k(    6) = (   0.0000000   0.5892557   0.0000000), wk =   0.0416667
        k(    7) = (   0.0000000  -0.7071068   0.0000000), wk =   0.0208333
        k(    8) = (   0.1250000   0.0000000   0.0000000), wk =   0.0416667
        k(    9) = (   0.1250000   0.1178511   0.0000000), wk =   0.0833333
        k(   10) = (   0.1250000   0.2357023   0.0000000), wk =   0.0833333
        k(   11) = (   0.1250000   0.3535534   0.0000000), wk =   0.0833333
        k(   12) = (   0.1250000   0.4714045   0.0000000), wk =   0.0833333
        k(   13) = (   0.1250000   0.5892557   0.0000000), wk =   0.0833333
        k(   14) = (   0.1250000  -0.7071068   0.0000000), wk =   0.0416667
        k(   15) = (   0.2500000   0.0000000   0.0000000), wk =   0.0416667
        k(   16) = (   0.2500000   0.1178511   0.0000000), wk =   0.0833333
        k(   17) = (   0.2500000   0.2357023   0.0000000), wk =   0.0833333
        k(   18) = (   0.2500000   0.3535534   0.0000000), wk =   0.0833333
        k(   19) = (   0.2500000   0.4714045   0.0000000), wk =   0.0833333
        k(   20) = (   0.2500000   0.5892557   0.0000000), wk =   0.0833333
        k(   21) = (   0.2500000  -0.7071068   0.0000000), wk =   0.0416667
        k(   22) = (   0.3750000   0.0000000   0.0000000), wk =   0.0416667
        k(   23) = (   0.3750000   0.1178511   0.0000000), wk =   0.0833333
        k(   24) = (   0.3750000   0.2357023   0.0000000), wk =   0.0833333
        k(   25) = (   0.3750000   0.3535534   0.0000000), wk =   0.0833333
        k(   26) = (   0.3750000   0.4714045   0.0000000), wk =   0.0833333
        k(   27) = (   0.3750000   0.5892557   0.0000000), wk =   0.0833333
        k(   28) = (   0.3750000  -0.7071068   0.0000000), wk =   0.0416667
        k(   29) = (  -0.5000000   0.0000000   0.0000000), wk =   0.0208333
        k(   30) = (  -0.5000000   0.1178511   0.0000000), wk =   0.0416667
        k(   31) = (  -0.5000000   0.2357023   0.0000000), wk =   0.0416667
        k(   32) = (  -0.5000000   0.3535534   0.0000000), wk =   0.0416667
        k(   33) = (  -0.5000000   0.4714045   0.0000000), wk =   0.0416667
        k(   34) = (  -0.5000000   0.5892557   0.0000000), wk =   0.0416667
        k(   35) = (  -0.5000000  -0.7071068   0.0000000), wk =   0.0208333

     Initial potential from superposition of free atoms

     starting charge     263.9974, renormalised to     264.0000

     negative rho (up, down):  6.170E-03 0.000E+00
     Starting wfcs are  216 randomized atomic wfcs
     Checking if some PAW data can be deallocated...

     Self-consistent Calculation

     iteration #  1     ecut=    50.00 Ry     beta= 0.10
     Davidson diagonalization with overlap
     ethr =  1.00E-02,  avg # of iterations =  5.7

     negative rho (up, down):  3.962E-03 0.000E+00

     total energy              =  -18604.22885754 Ry
     estimated scf accuracy    <       2.76522275 Ry

     iteration #  2     ecut=    50.00 Ry     beta= 0.10
     Davidson diagonalization with overlap
     c_bands:  4 eigenvalues not converged
     ethr =  1.05E-03,  avg # of iterations = 12.9

[...]

     iteration # 13     ecut=    50.00 Ry     beta= 0.10
     Davidson diagonalization with overlap
     c_bands:  2 eigenvalues not converged
     ethr =  6.27E-08,  avg # of iterations =  9.4

[...]

     total energy              =  -18604.48149354 Ry
     estimated scf accuracy    <       0.00000101 Ry

     iteration # 20     ecut=    50.00 Ry     beta= 0.10
     Davidson diagonalization with overlap
     ethr =  3.82E-10,  avg # of iterations =  7.4

[...]

     End of self-consistent calculation

          k = 0.0000 0.0000 0.0000 ( 25211 PWs)   bands (ev):

    -1.5506  -1.4285  -1.2301  -0.9619  -0.6326  -0.2526   0.1652   0.6048
     1.0460   1.1532   1.2302   1.3377   1.4449   1.4632   1.4660   1.5214
     1.5981   1.6566   1.7411   1.8074   1.8709   1.8900   2.0376   2.0581
     2.1197   2.1795   2.2236   2.3201   2.4593   2.5301   2.6859   2.8751
     2.8752   2.8953   2.9316   2.9316   3.0198   3.0210   3.0697   3.1312
     3.1362   3.1984   3.2535   3.2659   3.3086   3.3715   3.3861   3.4198
     3.4533   3.4817   3.4872   3.4872   3.5224   3.5285   3.5419   3.5888
     3.6219   3.6292   3.6368   3.6790   3.7099   3.7172   3.7760   3.7882
     3.7910   3.8090   3.8405   3.9228   4.0717   4.0949   4.1809   4.1810
     4.2352   4.3569   4.3575   4.3972   4.4054   4.4078   4.4105   4.4822
     4.4873   4.5818   4.5892   4.5949   4.6971   4.7040   4.7414   4.7853
     4.8182   4.8184   4.9129   4.9315   4.9713   4.9753   4.9789   4.9867
     5.0151   5.0614   5.0700   5.1178   5.1611   5.1728   5.1950   5.3000
     5.3550   5.3640   5.4966   5.5105   5.5316   5.5496   5.7099   5.7265
     5.7527   5.8736   5.8917   5.8920   6.0062   6.0423   6.0649   6.0931
     6.1231   6.1756   6.2154   6.2891   6.3803   6.4234   6.4328   6.4475
     6.4909   6.4990   6.8592   7.3460   7.8921   8.4933   9.1421   9.4914
     9.8276   9.8884  10.4445  10.5350  11.0988  11.2431  11.8187  11.9222
    12.5322  12.5864  13.0160  13.3502  13.3848  13.3912  13.6843  13.7669
    13.9855  13.9967  14.2258  14.4154  14.9456  15.0847

[...]

          k = 0.3750-0.7071 0.0000 ( 25342 PWs)   bands (ev):

[...]

          k =-0.5000 0.0000 0.0000 ( 25218 PWs)   bands (ev):

[...]

          k =-0.5000-0.7071 0.0000 ( 25344 PWs)   bands (ev):

     0.9225   0.9225   1.0235   1.0235   1.1836   1.1836   1.3918   1.3918
     1.6349   1.6349   1.8980   1.8980   2.1657   2.1657   2.2423   2.2423
     2.3047   2.3047   2.4034   2.4034   2.4233   2.4233   2.5309   2.5309
     2.6559   2.6559   2.6780   2.6780   2.8339   2.8339   2.8464   2.8464
     2.9749   2.9749   2.9869   2.9869   3.0466   3.0466   3.1253   3.1253
     3.1315   3.1315   3.2525   3.2525   3.2640   3.2640   3.3591   3.3591
     3.4025   3.4025   3.4503   3.4503   3.4582   3.4582   3.5140   3.5140
     3.5378   3.5378   3.5824   3.5824   3.6672   3.6672   3.7380   3.7380
     3.8431   3.8431   3.9935   3.9935   4.0578   4.0578   4.2973   4.2973
     4.3009   4.3009   4.5353   4.5353   4.6458   4.6458   4.7300   4.7300
     4.8355   4.8355   4.8500   4.8500   4.9245   4.9245   5.0226   5.0226
     5.2147   5.2147   5.4202   5.4202   5.8047   5.8047   6.0475   6.0475
     6.0510   6.0510   6.0840   6.0840   6.0880   6.0880   6.1007   6.1007
     6.1395   6.1395   6.1443   6.1443   6.1648   6.1648   6.2127   6.2127
     6.2844   6.2844   6.3484   6.3484   6.4263   6.4263   6.4807   6.4807
     7.5497   7.5497   8.0145   8.0145   8.5872   8.5872   9.2151   9.2151
     9.8784   9.8784  10.5666  10.5666  11.2718  11.2718  11.2780  11.2780
    11.2797  11.2797  11.2952  11.2952  11.2957  11.2957  11.3262  11.3262
    11.3922  11.3922  11.4955  11.4955  11.6368  11.6368  11.8409  11.8409
    11.9852  11.9852  12.1355  12.1355  12.5104  12.5104

     the Fermi energy is     8.8674 ev

!    total energy              =  -18604.48149386 Ry

     total all-electron energy =   -912576.787679 Ry
     estimated scf accuracy    <       0.00000071 Ry
     smearing contrib. (-TS)   =      -3.11058433 Ry
     internal energy E=F+TS    =  -18601.37090953 Ry

     The total energy is F=E-TS. E is the sum of the following terms:
     one-electron contribution =  -42169.75178123 Ry
     hartree contribution      =   21359.49584988 Ry
     xc contribution           =    -769.57160845 Ry
     ewald contribution        =   19599.01915909 Ry
     one-center paw contrib.   =  -16620.56252882 Ry

     convergence has been achieved in  20 iterations

     negative rho (up, down):  3.561E-03 0.000E+00

     Forces acting on atoms (cartesian axes, Ry/au):

     atom    1 type  1   force =     0.00000000    0.00000000   -0.02143731
     atom    2 type  1   force =     0.00000000    0.00000000   -0.02866498
     atom    3 type  1   force =     0.00000000    0.00000000    0.00078093
     atom    4 type  1   force =     0.00000000    0.00000000    0.00092250
     atom    5 type  1   force =     0.00000000    0.00000000    0.00033696
     atom    6 type  1   force =     0.00000000    0.00000000    0.00018398
     atom    7 type  1   force =     0.00000000    0.00000000    0.00008899
     atom    8 type  1   force =     0.00000000    0.00000000    0.00005715
     atom    9 type  1   force =     0.00000000    0.00000000    0.00010765
     atom   10 type  1   force =     0.00000000    0.00000000    0.00007583
     atom   11 type  1   force =     0.00000000    0.00000000    0.00005195
     atom   12 type  1   force =     0.00000000    0.00000000    0.00000629
     atom   13 type  1   force =     0.00000000    0.00000000   -0.00000629
     atom   14 type  1   force =     0.00000000    0.00000000   -0.00005195
     atom   15 type  1   force =     0.00000000    0.00000000   -0.00007583
     atom   16 type  1   force =     0.00000000    0.00000000   -0.00010765
     atom   17 type  1   force =     0.00000000    0.00000000   -0.00005715
     atom   18 type  1   force =     0.00000000    0.00000000   -0.00008899
     atom   19 type  1   force =     0.00000000    0.00000000   -0.00018398
     atom   20 type  1   force =     0.00000000    0.00000000   -0.00033696
     atom   21 type  1   force =     0.00000000    0.00000000   -0.00092250
     atom   22 type  1   force =     0.00000000    0.00000000   -0.00078093
     atom   23 type  1   force =     0.00000000    0.00000000    0.02866498
     atom   24 type  1   force =     0.00000000    0.00000000    0.02143731

     Total force =     0.050653     Total SCF correction =     0.001761

     Writing all to output data dir ./pwscf.save/

     General routines

     Parallel routines

   This run was terminated on:  18:34:51  25Mar2024

   JOB DONE.