     Program PWSCF v.7.0 starts on 25Mar2024 at 18: 3: 5

     R & G space division:  proc/nbgrp/npool/nimage =      10

     Reading input from 111_surface.in
Warning: card &CELL ignored
Warning: card / ignored

     Current dimensions of program PWSCF are:
     Max number of different atomic species (ntypx) = 10
     Max number of k-points (npk) =  40000
     Max angular momentum in pseudopotentials (lmaxx) =  4

     File ./pwscf.update deleted, as requested

     File ./pwscf.bfgs deleted, as requested
     file Au.pbe-n-kjpaw_psl.1.0.0.UPF: wavefunction(s)  6S 5D renormalized
     Found identity + ( -0.5000 -0.5000  0.0000) symmetry
     This is a supercell, fractional translations are disabled
     Message from routine setup:
     using ibrav=0 with symmetry is DISCOURAGED, use correct ibrav instead

     Using Slab Decomposition

     bravais-lattice index     =            0
     lattice parameter (alat)  =       5.4519  a.u.
     unit-cell volume          =    5841.5018 (a.u.)^3
     number of atoms/cell      =           36
     number of atomic types    =            1
     number of electrons       =       396.00
     number of Kohn-Sham states=          238
     kinetic-energy cutoff     =      50.0000  Ry
     charge density cutoff     =     200.0000  Ry
     scf convergence threshold =      1.0E-06
     mixing beta               =       0.1000
     number of iterations used =            8  plain     mixing
     Exchange-correlation= SLA  PW   PBX  PBC
                           (   1   4   3   4   0   0   0)

     celldm(1)=   5.451852  celldm(2)=   0.000000  celldm(3)=   0.000000
     celldm(4)=   0.000000  celldm(5)=   0.000000  celldm(6)=   0.000000

     crystal axes: (cart. coord. in units of alat)
               a(1) = (   1.000000   0.000000   0.000000 )
               a(2) = (   0.000000   1.732051   0.000000 )
               a(3) = (   0.000000   0.000000  20.812861 )

     reciprocal axes: (cart. coord. in units 2 pi/alat)
               b(1) = (  1.000000  0.000000  0.000000 )
               b(2) = (  0.000000  0.577350  0.000000 )
               b(3) = (  0.000000  0.000000  0.048047 )

     PseudoPot. # 1 for Au read from file:
     ./Au.pbe-n-kjpaw_psl.1.0.0.UPF
     MD5 check sum: 4db85c736373c707a97ce4c36c2a9d23
     Pseudo is Projector augmented-wave + core cor, Zval = 11.0
     Generated using &quot;atomic&quot; code by A. Dal Corso  v.6.3
     Shape of augmentation charge: PSQ
     Using radial grid of 1279 points,  6 beta functions with:
                l(1) =   0
                l(2) =   0
                l(3) =   1
                l(4) =   1
                l(5) =   2
                l(6) =   2
     Q(r) pseudized with 0 coefficients

     atomic species   valence    mass     pseudopotential
        Au            11.00   196.96657     Au( 1.00)

      2 Sym. Ops. (no inversion) found

   Cartesian axes

     site n.     atom                  positions (alat units)
         1           Au  tau(   1) = (   0.5000000   0.2886751   3.4662097  )
         2           Au  tau(   2) = (   0.0000000   1.1547005   3.4662097  )
         3           Au  tau(   3) = (   0.0000000   0.5773503   4.2827063  )
         4           Au  tau(   4) = (   0.5000000   1.4433757   4.2827063  )
         5           Au  tau(   5) = (   0.0000000   0.0000000   5.0992029  )
         6           Au  tau(   6) = (   0.5000000   0.8660254   5.0992029  )
         7           Au  tau(   7) = (   0.5000000   0.2886751   5.9156995  )
         8           Au  tau(   8) = (   0.0000000   1.1547005   5.9156995  )
         9           Au  tau(   9) = (   0.0000000   0.5773503   6.7321960  )
        10           Au  tau(  10) = (   0.5000000   1.4433757   6.7321960  )
        11           Au  tau(  11) = (   0.0000000   0.0000000   7.5486926  )
        12           Au  tau(  12) = (   0.5000000   0.8660254   7.5486926  )
        13           Au  tau(  13) = (   0.5000000   0.2886751   8.3651892  )
        14           Au  tau(  14) = (   0.0000000   1.1547005   8.3651892  )
        15           Au  tau(  15) = (   0.0000000   0.5773503   9.1816858  )
        16           Au  tau(  16) = (   0.5000000   1.4433757   9.1816858  )
        17           Au  tau(  17) = (   0.0000000   0.0000000   9.9981824  )
        18           Au  tau(  18) = (   0.5000000   0.8660254   9.9981824  )
        19           Au  tau(  19) = (   0.5000000   0.2886751  10.8146789  )
        20           Au  tau(  20) = (   0.0000000   1.1547005  10.8146789  )
        21           Au  tau(  21) = (   0.0000000   0.5773503  11.6311755  )
        22           Au  tau(  22) = (   0.5000000   1.4433757  11.6311755  )
        23           Au  tau(  23) = (   0.0000000   0.0000000  12.4476721  )
        24           Au  tau(  24) = (   0.5000000   0.8660254  12.4476721  )
        25           Au  tau(  25) = (   0.5000000   0.2886751  13.2641687  )
        26           Au  tau(  26) = (   0.0000000   1.1547005  13.2641687  )
        27           Au  tau(  27) = (   0.0000000   0.5773503  14.0806653  )
        28           Au  tau(  28) = (   0.5000000   1.4433757  14.0806653  )
        29           Au  tau(  29) = (   0.0000000   0.0000000  14.8971618  )
        30           Au  tau(  30) = (   0.5000000   0.8660254  14.8971618  )
        31           Au  tau(  31) = (   0.5000000   0.2886751  15.7136584  )
        32           Au  tau(  32) = (   0.0000000   1.1547005  15.7136584  )
        33           Au  tau(  33) = (   0.0000000   0.5773503  16.5301550  )
        34           Au  tau(  34) = (   0.5000000   1.4433757  16.5301550  )
        35           Au  tau(  35) = (   0.0000000   0.0000000  17.3466516  )
        36           Au  tau(  36) = (   0.5000000   0.8660254  17.3466516  )

     number of k points=    35  Gaussian smearing, width (Ry)=  0.2000
                       cart. coord. in units 2pi/alat
        k(    1) = (   0.0000000   0.0000000   0.0000000), wk =   0.0208333
        k(    2) = (   0.0000000   0.0481125   0.0000000), wk =   0.0416667
        k(    3) = (   0.0000000   0.0962250   0.0000000), wk =   0.0416667
        k(    4) = (   0.0000000   0.1443376   0.0000000), wk =   0.0416667
        k(    5) = (   0.0000000   0.1924501   0.0000000), wk =   0.0416667
        k(    6) = (   0.0000000   0.2405626   0.0000000), wk =   0.0416667
        k(    7) = (   0.0000000  -0.2886751   0.0000000), wk =   0.0208333
        k(    8) = (   0.1250000   0.0000000   0.0000000), wk =   0.0416667
        k(    9) = (   0.1250000   0.0481125   0.0000000), wk =   0.0833333
        k(   10) = (   0.1250000   0.0962250   0.0000000), wk =   0.0833333
        k(   11) = (   0.1250000   0.1443376   0.0000000), wk =   0.0833333
        k(   12) = (   0.1250000   0.1924501   0.0000000), wk =   0.0833333
        k(   13) = (   0.1250000   0.2405626   0.0000000), wk =   0.0833333
        k(   14) = (   0.1250000  -0.2886751   0.0000000), wk =   0.0416667
        k(   15) = (   0.2500000   0.0000000   0.0000000), wk =   0.0416667
        k(   16) = (   0.2500000   0.0481125   0.0000000), wk =   0.0833333
        k(   17) = (   0.2500000   0.0962250   0.0000000), wk =   0.0833333
        k(   18) = (   0.2500000   0.1443376   0.0000000), wk =   0.0833333
        k(   19) = (   0.2500000   0.1924501   0.0000000), wk =   0.0833333
        k(   20) = (   0.2500000   0.2405626   0.0000000), wk =   0.0833333
        k(   21) = (   0.2500000  -0.2886751   0.0000000), wk =   0.0416667
        k(   22) = (   0.3750000   0.0000000   0.0000000), wk =   0.0416667
        k(   23) = (   0.3750000   0.0481125   0.0000000), wk =   0.0833333
        k(   24) = (   0.3750000   0.0962250   0.0000000), wk =   0.0833333
        k(   25) = (   0.3750000   0.1443376   0.0000000), wk =   0.0833333
        k(   26) = (   0.3750000   0.1924501   0.0000000), wk =   0.0833333
        k(   27) = (   0.3750000   0.2405626   0.0000000), wk =   0.0833333
        k(   28) = (   0.3750000  -0.2886751   0.0000000), wk =   0.0416667
        k(   29) = (  -0.5000000   0.0000000   0.0000000), wk =   0.0208333
        k(   30) = (  -0.5000000   0.0481125   0.0000000), wk =   0.0416667
        k(   31) = (  -0.5000000   0.0962250   0.0000000), wk =   0.0416667
        k(   32) = (  -0.5000000   0.1443376   0.0000000), wk =   0.0416667
        k(   33) = (  -0.5000000   0.1924501   0.0000000), wk =   0.0416667
        k(   34) = (  -0.5000000   0.2405626   0.0000000), wk =   0.0416667
        k(   35) = (  -0.5000000  -0.2886751   0.0000000), wk =   0.0208333

     Initial potential from superposition of free atoms

     starting charge     395.9961, renormalised to     396.0000

     negative rho (up, down):  7.328E-03 0.000E+00
     Starting wfcs are  324 randomized atomic wfcs
     Checking if some PAW data can be deallocated...

     Self-consistent Calculation

     iteration #  1     ecut=    50.00 Ry     beta= 0.10
     Davidson diagonalization with overlap
     ethr =  1.00E-02,  avg # of iterations =  5.9

     Threshold (ethr) on eigenvalues was too large:
     Diagonalizing with lowered threshold

     Davidson diagonalization with overlap
     ethr =  8.80E-04,  avg # of iterations =  6.7

     negative rho (up, down):  3.126E-03 0.000E+00

     total energy              =  -27906.82015542 Ry
     estimated scf accuracy    <       4.19782663 Ry

     iteration #  2     ecut=    50.00 Ry     beta= 0.10
     Davidson diagonalization with overlap
     c_bands:  1 eigenvalues not converged
     ethr =  1.06E-03,  avg # of iterations = 13.9

[...]

     iteration # 12     ecut=    50.00 Ry     beta= 0.10
     Davidson diagonalization with overlap
     c_bands:  1 eigenvalues not converged
     ethr =  1.05E-05,  avg # of iterations =  3.5

[...]

     total energy              =  -27906.75097523 Ry
     estimated scf accuracy    <       0.00000253 Ry

     iteration # 39     ecut=    50.00 Ry     beta= 0.10
     Davidson diagonalization with overlap
     ethr =  6.39E-10,  avg # of iterations =  1.2

[...]

     End of self-consistent calculation

          k = 0.0000 0.0000 0.0000 ( 34887 PWs)   bands (ev):

    -0.3652  -0.2845  -0.1523   0.0275   0.2502   0.5084   0.7923   1.0876
     1.3747   1.6298   1.8309   1.9669   2.0432   2.0769   2.0873   2.0883
     2.1082   2.1687   2.2658   2.2983   2.2984   2.3411   2.3871   2.3931
     2.4592   2.5390   2.5516   2.6362   2.6479   2.6783   2.6942   2.7473
     2.7501   2.8249   2.8376   2.8542   2.9074   2.9095   2.9896   3.1477
     3.2194   3.2474   3.3893   3.6110   3.8443   4.0555   4.2082   4.3103
     4.3960   4.4627   4.4639   4.4748   4.5174   4.5189   4.5450   4.5867
     4.5940   4.6000   4.6381   4.6381   4.6438   4.6458   4.6471   4.6486
     4.6552   4.6576   4.6576   4.6780   4.6780   4.6888   4.6888   4.6995
     4.7074   4.7074   4.7131   4.7297   4.7297   4.7528   4.7528   4.7777
     4.7777   4.7830   4.8087   4.8087   4.8290   4.8290   4.8481   4.8670
     4.8670   4.8790   4.8790   4.8973   4.9172   4.9172   4.9215   4.9215
     4.9496   4.9496   4.9502   4.9502   5.0400   5.0609   5.0671   5.0758
     5.2085   5.2488   5.2488   5.2488   5.2488   5.2711   5.3022   5.3996
     5.4183   5.5612   5.6097   5.6208   5.8342   5.8708   5.9028   5.9809
     6.0681   6.1234   6.1234   6.1245   6.1245   6.1455   6.1455   6.1491
     6.1491   6.1680   6.1680   6.1740   6.1740   6.2185   6.2185   6.2729
     6.2899   6.2899   6.3050   6.3581   6.3882   6.3882   6.4128   6.5110
     6.5110   6.5373   6.6483   6.6511   6.6511   6.7307   6.7558   6.7994
     6.7994   6.9459   6.9459   6.9500   7.0036   7.0174   7.0646   7.0815
     7.0815   7.1083   7.1977   7.1977   7.2212   7.2869   7.2869   7.2872
     7.2968   7.3079   7.3160   7.3436   7.3436   7.3663   7.3663   7.3710
     7.3756   7.3832   7.3934   7.4058   7.4203   7.4365   7.4540   7.4729
     7.4931   7.5151   7.5246   7.5403   7.5706   7.6072   7.6467   7.6480
     7.6509   7.6785   7.8263   7.8263   8.2342   8.6625   8.9344   9.2516
     9.2572   9.2791   9.5590   9.8302  10.0534  10.2274  10.3578  10.4524
    10.5185  10.5497  10.5613  10.5696  10.5840  10.5901  10.5949  10.8713
    10.8714  12.5286  12.6157  12.7468  12.7619  12.9624  13.1980  13.3457
    13.4350  13.6684  13.9445  14.0538  14.2943  14.4467  14.6979  14.7591
    14.8925  15.1168  15.3020  15.5120  15.5169  15.5218

[...]

          k = 0.3750-0.2887 0.0000 ( 34926 PWs)   bands (ev):

[...]

          k =-0.5000 0.0000 0.0000 ( 35004 PWs)   bands (ev):

[...]

          k =-0.5000-0.2887 0.0000 ( 34992 PWs)   bands (ev):

     2.1082   2.1083   2.1687   2.1687   2.2658   2.2658   2.3411   2.3412
     2.3871   2.3872   2.3931   2.3932   2.4592   2.4592   2.5390   2.5390
     2.5516   2.5517   2.6362   2.6363   2.6479   2.6479   2.6782   2.6783
     2.6942   2.6942   2.7473   2.7474   2.7501   2.7502   2.8249   2.8250
     2.8376   2.8376   2.8542   2.8542   2.9074   2.9075   2.9095   2.9095
     2.9896   2.9896   3.1477   3.1478   3.2194   3.2195   3.2473   3.2474
     3.3893   3.3893   3.6110   3.6110   3.8443   3.8443   4.0555   4.0555
     4.2082   4.2082   4.3103   4.3103   4.3960   4.3960   4.4747   4.4748
     4.5449   4.5450   4.6000   4.6000   4.6438   4.6438   4.6471   4.6472
     4.6486   4.6486   4.6995   4.6995   4.7830   4.7830   4.8973   4.8973
     5.0400   5.0400   5.0609   5.0609   5.0671   5.0671   5.2085   5.2085
     5.2711   5.2711   5.3022   5.3022   5.3996   5.3996   5.5612   5.5612
     5.6096   5.6097   5.6208   5.6208   5.8342   5.8343   5.9028   5.9028
     5.9808   5.9809   6.0681   6.0682   6.2728   6.2729   6.3050   6.3050
     6.3581   6.3581   6.5373   6.5373   6.6483   6.6483   6.7307   6.7307
     6.7558   6.7558   6.9500   6.9500   7.0036   7.0036   7.0646   7.0646
     7.1083   7.1083   7.2211   7.2212   7.2871   7.2872   7.2968   7.2969
     7.3078   7.3079   7.3159   7.3160   7.3710   7.3711   7.3756   7.3757
     7.3831   7.3832   7.3933   7.3934   7.4058   7.4059   7.4203   7.4204
     7.4364   7.4365   7.4540   7.4541   7.4728   7.4729   7.4930   7.4931
     7.5151   7.5152   7.5245   7.5246   7.5403   7.5403   7.5705   7.5706
     7.6072   7.6073   7.6466   7.6467   7.6509   7.6509   7.6785   7.6785
     7.8262   7.8262   7.8263   7.8263   8.6625   8.6625   8.9344   8.9344
     9.2516   9.2516   9.5590   9.5590   9.8302   9.8302  10.0533  10.0534
    10.2274  10.2274  10.3578  10.3578  10.4524  10.4524  10.5185  10.5185
    10.5497  10.5498  10.5613  10.5613  10.5696  10.5696  10.5840  10.5840
    10.5901  10.5901  10.5949  10.5949  10.8713  10.8713  10.8713  10.8714
    12.5286  12.5287  12.6156  12.6157  12.7618  12.7619  12.9624  12.9625
    13.1980  13.1980  13.4350  13.4350  13.6684  13.6684  13.9445  13.9445
    14.2943  14.2943  14.6979  14.6979  15.1169  15.1169

     the Fermi energy is    10.0665 ev

!    total energy              =  -27906.75097479 Ry

     total all-electron energy =  -1368865.210253 Ry
     estimated scf accuracy    <       0.00000092 Ry
     smearing contrib. (-TS)   =      -4.59807117 Ry
     internal energy E=F+TS    =  -27902.15290363 Ry

     The total energy is F=E-TS. E is the sum of the following terms:
     one-electron contribution =  -62284.31844043 Ry
     hartree contribution      =   31571.32372810 Ry
     xc contribution           =   -1154.53976905 Ry
     ewald contribution        =   28896.24998470 Ry
     one-center paw contrib.   =  -24930.86840695 Ry

     convergence has been achieved in  39 iterations

     negative rho (up, down):  4.265E-03 0.000E+00

     Forces acting on atoms (cartesian axes, Ry/au):

     atom    1 type  1   force =     0.00000000   -0.00000226   -0.03202916
     atom    2 type  1   force =     0.00000000    0.00000317   -0.03201009
     atom    3 type  1   force =     0.00000000   -0.00000179    0.00271712
     atom    4 type  1   force =     0.00000000   -0.00000240    0.00268646
     atom    5 type  1   force =     0.00000000   -0.00000097    0.00003199
     atom    6 type  1   force =     0.00000000    0.00000603    0.00003572
     atom    7 type  1   force =     0.00000000    0.00000023   -0.00012560
     atom    8 type  1   force =     0.00000000    0.00000052   -0.00013352
     atom    9 type  1   force =     0.00000000   -0.00000003   -0.00013218
     atom   10 type  1   force =     0.00000000    0.00000456   -0.00013276
     atom   11 type  1   force =     0.00000000   -0.00000002    0.00007939
     atom   12 type  1   force =     0.00000000   -0.00000925    0.00007170
     atom   13 type  1   force =     0.00000000    0.00000031    0.00023396
     atom   14 type  1   force =     0.00000000   -0.00000017    0.00027179
     atom   15 type  1   force =     0.00000000   -0.00000316    0.00028292
     atom   16 type  1   force =     0.00000000    0.00000242    0.00026255
     atom   17 type  1   force =     0.00000000   -0.00000785    0.00020539
     atom   18 type  1   force =     0.00000000    0.00000512    0.00020373
     atom   19 type  1   force =     0.00000000   -0.00000249    0.00019862
     atom   20 type  1   force =     0.00000000    0.00000348    0.00018798
     atom   21 type  1   force =     0.00000000    0.00000655    0.00021433
     atom   22 type  1   force =     0.00000000    0.00000295    0.00021766
     atom   23 type  1   force =     0.00000000    0.00000595    0.00016425
     atom   24 type  1   force =     0.00000000   -0.00000536    0.00017490
     atom   25 type  1   force =     0.00000000   -0.00000032   -0.00006028
     atom   26 type  1   force =     0.00000000   -0.00000242   -0.00005726
     atom   27 type  1   force =     0.00000000   -0.00000002   -0.00035270
     atom   28 type  1   force =     0.00000000   -0.00000464   -0.00035613
     atom   29 type  1   force =     0.00000000   -0.00000317   -0.00051921
     atom   30 type  1   force =     0.00000000   -0.00000329   -0.00052094
     atom   31 type  1   force =     0.00000000   -0.00000570   -0.00040340
     atom   32 type  1   force =     0.00000000   -0.00000004   -0.00040923
     atom   33 type  1   force =     0.00000000    0.00000251   -0.00273067
     atom   34 type  1   force =     0.00000000    0.00000432   -0.00271129
     atom   35 type  1   force =     0.00000000    0.00000498    0.03220875
     atom   36 type  1   force =     0.00000000    0.00000225    0.03223521

     Total force =     0.064484     Total SCF correction =     0.004443

     Writing all to output data dir ./pwscf.save/

     General routines

     Parallel routines

   This run was terminated on:  19:28:16  25Mar2024

   JOB DONE.