     Program PWSCF v.7.0 starts on 27Jan2024 at 16:39:59

     R & G space division:  proc/nbgrp/npool/nimage =      20

     Reading input from elasticBCC31.in
Warning: card &CELL ignored
Warning: card / ignored

     Current dimensions of program PWSCF are:
     Max number of different atomic species (ntypx) = 10
     Max number of k-points (npk) =  40000
     Max angular momentum in pseudopotentials (lmaxx) =  4
     file Au.pbe-n-kjpaw_psl.1.0.0.UPF: wavefunction(s)  6S 5D renormalized

     Using Slab Decomposition

     bravais-lattice index     =            0
     lattice parameter (alat)  =      11.8290  a.u.
     unit-cell volume          =    1644.8335 (a.u.)^3
     number of atoms/cell      =            2
     number of atomic types    =            1
     number of electrons       =        22.00
     number of Kohn-Sham states=           15
     kinetic-energy cutoff     =      50.0000  Ry
     charge density cutoff     =     200.0000  Ry
     scf convergence threshold =      1.0E-06
     mixing beta               =       0.7000
     number of iterations used =            8  plain     mixing
     Exchange-correlation= SLA  PW   PBX  PBC
                           (   1   4   3   4   0   0   0)

     celldm(1)=  11.829042  celldm(2)=   0.000000  celldm(3)=   0.000000
     celldm(4)=   0.000000  celldm(5)=   0.000000  celldm(6)=   0.000000

     crystal axes: (cart. coord. in units of alat)
               a(1) = (   1.000000   0.000423   0.000584 )
               a(2) = (   0.000047   0.994871   0.000776 )
               a(3) = (   0.000133   0.000683   0.998865 )

     reciprocal axes: (cart. coord. in units 2 pi/alat)
               b(1) = (  1.000000 -0.000047 -0.000133 )
               b(2) = ( -0.000425  1.005156 -0.000688 )
               b(3) = ( -0.000584 -0.000781  1.001137 )

     PseudoPot. # 1 for Au read from file:
     ./Au.pbe-n-kjpaw_psl.1.0.0.UPF
     MD5 check sum: 4db85c736373c707a97ce4c36c2a9d23
     Pseudo is Projector augmented-wave + core cor, Zval = 11.0
     Generated using &quot;atomic&quot; code by A. Dal Corso  v.6.3
     Shape of augmentation charge: PSQ
     Using radial grid of 1279 points,  6 beta functions with:
                l(1) =   0
                l(2) =   0
                l(3) =   1
                l(4) =   1
                l(5) =   2
                l(6) =   2
     Q(r) pseudized with 0 coefficients

     atomic species   valence    mass     pseudopotential
        Au            11.00   196.96657     Au( 1.00)

     No symmetry found

   Cartesian axes

     site n.     atom                  positions (alat units)
         1           Au  tau(   1) = (   0.0000000   0.0000000   0.0000000  )
         2           Au  tau(   2) = (   0.4991220   0.4991220   0.4991220  )

     number of k points=   868  Gaussian smearing, width (Ry)=  0.0020

     Number of k-points >= 100: set verbosity='high' to print them.

     Initial potential from superposition of free atoms

     starting charge      21.9998, renormalised to      22.0000
     Starting wfcs are   18 randomized atomic wfcs
     Checking if some PAW data can be deallocated...

     Self-consistent Calculation

     iteration #  1     ecut=    50.00 Ry     beta= 0.70
     Davidson diagonalization with overlap
     ethr =  1.00E-02,  avg # of iterations =  2.0

     Threshold (ethr) on eigenvalues was too large:
     Diagonalizing with lowered threshold

     Davidson diagonalization with overlap
     ethr =  3.34E-06,  avg # of iterations =  6.6

     total energy              =   -1549.83233517 Ry
     estimated scf accuracy    <       0.00061070 Ry

[...]

     total energy              =   -1549.83250561 Ry
     estimated scf accuracy    <       0.00000180 Ry

     iteration #  7     ecut=    50.00 Ry     beta= 0.70
     Davidson diagonalization with overlap
     ethr =  8.18E-09,  avg # of iterations =  2.8

     End of self-consistent calculation

     Number of k-points >= 100: set verbosity='high' to print the bands.

     the Fermi energy is    -2.9207 ev

!    total energy              =   -1549.83250591 Ry

     total all-electron energy =    -76047.524688 Ry
     estimated scf accuracy    <       0.00000045 Ry
     smearing contrib. (-TS)   =      -0.00030202 Ry
     internal energy E=F+TS    =   -1549.83220389 Ry

     The total energy is F=E-TS. E is the sum of the following terms:
     one-electron contribution =     -84.67760134 Ry
     hartree contribution      =      58.25261587 Ry
     xc contribution           =     -63.81711658 Ry
     ewald contribution        =     -74.60767773 Ry
     one-center paw contrib.   =   -1384.98242411 Ry

     convergence has been achieved in   7 iterations

     Forces acting on atoms (cartesian axes, Ry/au):

     atom    1 type  1   force =     0.00023070   -0.00016752    0.00021584
     atom    2 type  1   force =    -0.00023070    0.00016752   -0.00021584

     Total force =     0.000506     Total SCF correction =     0.000219
     SCF correction compared to forces is large: reduce conv_thr to get better values

     Writing all to output data dir ./pwscf.save/

     General routines

     Parallel routines

   This run was terminated on:  16:42:20  27Jan2024

   JOB DONE.