     Program PWSCF v.7.0 starts on 16Feb2024 at  0: 0:58

     R & G space division:  proc/nbgrp/npool/nimage =      10

     Reading input from GSF111_0.4.in
Warning: card &CELL ignored
Warning: card / ignored

     Current dimensions of program PWSCF are:
     Max number of different atomic species (ntypx) = 10
     Max number of k-points (npk) =  40000
     Max angular momentum in pseudopotentials (lmaxx) =  4

     File ./pwscf.bfgs deleted, as requested
     file Au.pbe-n-kjpaw_psl.1.0.0.UPF: wavefunction(s)  6S 5D renormalized
     Found identity + ( -0.5000  0.5000  0.0000) symmetry
     This is a supercell, fractional translations are disabled

     Using Slab Decomposition

     bravais-lattice index     =            0
     lattice parameter (alat)  =       9.6360  a.u.
     unit-cell volume          =    3935.2145 (a.u.)^3
     number of atoms/cell      =           26
     number of atomic types    =            1
     number of electrons       =       286.00
     number of Kohn-Sham states=          172
     kinetic-energy cutoff     =      50.0000  Ry
     charge density cutoff     =     200.0000  Ry
     scf convergence threshold =      1.0E-06
     mixing beta               =       0.7000
     number of iterations used =            8  plain     mixing
     Exchange-correlation= SLA  PW   PBX  PBC
                           (   1   4   3   4   0   0   0)

     celldm(1)=   9.635999  celldm(2)=   0.000000  celldm(3)=   0.000000
     celldm(4)=   0.000000  celldm(5)=   0.000000  celldm(6)=   0.000000

     crystal axes: (cart. coord. in units of alat)
               a(1) = (   1.000000   0.000000   0.000000 )
               a(2) = (   0.000000   0.577350   0.000000 )
               a(3) = (  -0.000005   0.000000   7.617966 )

     reciprocal axes: (cart. coord. in units 2 pi/alat)
               b(1) = (  1.000000  0.000000  0.000001 )
               b(2) = (  0.000000  1.732052  0.000000 )
               b(3) = (  0.000000  0.000000  0.131269 )

     PseudoPot. # 1 for Au read from file:
     ./Au.pbe-n-kjpaw_psl.1.0.0.UPF
     MD5 check sum: 4db85c736373c707a97ce4c36c2a9d23
     Pseudo is Projector augmented-wave + core cor, Zval = 11.0
     Generated using &quot;atomic&quot; code by A. Dal Corso  v.6.3
     Shape of augmentation charge: PSQ
     Using radial grid of 1279 points,  6 beta functions with:
                l(1) =   0
                l(2) =   0
                l(3) =   1
                l(4) =   1
                l(5) =   2
                l(6) =   2
     Q(r) pseudized with 0 coefficients

     atomic species   valence    mass     pseudopotential
        Au            11.00   196.96657     Au( 1.00)

     No symmetry found

   Cartesian axes

     site n.     atom                  positions (alat units)
         1           Au  tau(   1) = (   0.0000000   0.0000000   0.0000000  )
         2           Au  tau(   2) = (   0.9999954   0.2309404   5.6568550  )
         3           Au  tau(   3) = (   0.9999966   0.2309404   4.2426411  )
         4           Au  tau(   4) = (   0.9999976   0.0000000   2.8284275  )
         5           Au  tau(   5) = (   0.9999988   0.0000000   1.4142138  )
         6           Au  tau(   6) = (   0.3333329   0.0000000   0.4714045  )
         7           Au  tau(   7) = (   0.3333296   0.2309404   4.7140455  )
         8           Au  tau(   8) = (   0.3333308   0.2309404   3.2998319  )
         9           Au  tau(   9) = (   0.3333318   0.0000000   1.8856185  )
        10           Au  tau(  10) = (   0.6666659   0.0000000   0.9428093  )
        11           Au  tau(  11) = (   0.6666625   0.2309404   5.1854506  )
        12           Au  tau(  12) = (   0.6666637   0.2309404   3.7712367  )
        13           Au  tau(  13) = (   0.6666649   0.0000000   2.3570234  )
        14           Au  tau(  14) = (   0.8333330   0.2886749   0.4714045  )
        15           Au  tau(  15) = (   0.8333294   0.5196153   4.7140455  )
        16           Au  tau(  16) = (   0.8333306   0.5196153   3.2998319  )
        17           Au  tau(  17) = (   0.8333318   0.2886749   1.8856185  )
        18           Au  tau(  18) = (   0.1666658   0.2886749   0.9428093  )
        19           Au  tau(  19) = (   0.1666624   0.5196153   5.1854506  )
        20           Au  tau(  20) = (   0.1666636   0.5196153   3.7712367  )
        21           Au  tau(  21) = (   0.1666648   0.2886749   2.3570234  )
        22           Au  tau(  22) = (   0.5000001   0.2886749   0.0000000  )
        23           Au  tau(  23) = (   0.4999955   0.5196153   5.6568550  )
        24           Au  tau(  24) = (   0.4999965   0.5196153   4.2426411  )
        25           Au  tau(  25) = (   0.4999977   0.2886749   2.8284275  )
        26           Au  tau(  26) = (   0.4999989   0.2886749   1.4142138  )

     number of k points=    50  Gaussian smearing, width (Ry)=  0.0200
                       cart. coord. in units 2pi/alat
        k(    1) = (   0.0000000   0.0000000   0.0000000), wk =   0.0208333
        k(    2) = (   0.0000000   0.1443376   0.0000000), wk =   0.0416667
        k(    3) = (   0.0000000   0.2886753   0.0000000), wk =   0.0416667
        k(    4) = (   0.0000000   0.4330129   0.0000000), wk =   0.0416667
        k(    5) = (   0.0000000   0.5773506   0.0000000), wk =   0.0416667
        k(    6) = (   0.0000000   0.7216882   0.0000000), wk =   0.0416667
        k(    7) = (   0.0000000  -0.8660259   0.0000000), wk =   0.0208333
        k(    8) = (   0.1250000   0.0000000   0.0000001), wk =   0.0416667
        k(    9) = (   0.1250000   0.1443376   0.0000001), wk =   0.0416667
        k(   10) = (   0.1250000   0.2886753   0.0000001), wk =   0.0416667
        k(   11) = (   0.1250000   0.4330129   0.0000001), wk =   0.0416667
        k(   12) = (   0.1250000   0.5773506   0.0000001), wk =   0.0416667
        k(   13) = (   0.1250000   0.7216882   0.0000001), wk =   0.0416667
        k(   14) = (   0.1250000  -0.8660259   0.0000001), wk =   0.0416667
        k(   15) = (   0.2500000   0.0000000   0.0000002), wk =   0.0416667
        k(   16) = (   0.2500000   0.1443376   0.0000002), wk =   0.0416667
        k(   17) = (   0.2500000   0.2886753   0.0000002), wk =   0.0416667
        k(   18) = (   0.2500000   0.4330129   0.0000002), wk =   0.0416667
        k(   19) = (   0.2500000   0.5773506   0.0000002), wk =   0.0416667
        k(   20) = (   0.2500000   0.7216882   0.0000002), wk =   0.0416667
        k(   21) = (   0.2500000  -0.8660259   0.0000002), wk =   0.0416667
        k(   22) = (   0.3750000   0.0000000   0.0000002), wk =   0.0416667
        k(   23) = (   0.3750000   0.1443376   0.0000002), wk =   0.0416667
        k(   24) = (   0.3750000   0.2886753   0.0000002), wk =   0.0416667
        k(   25) = (   0.3750000   0.4330129   0.0000002), wk =   0.0416667
        k(   26) = (   0.3750000   0.5773506   0.0000002), wk =   0.0416667
        k(   27) = (   0.3750000   0.7216882   0.0000002), wk =   0.0416667
        k(   28) = (   0.3750000  -0.8660259   0.0000002), wk =   0.0416667
        k(   29) = (  -0.5000000   0.0000000  -0.0000003), wk =   0.0208333
        k(   30) = (  -0.5000000   0.1443376  -0.0000003), wk =   0.0416667
        k(   31) = (  -0.5000000   0.2886753  -0.0000003), wk =   0.0416667
        k(   32) = (  -0.5000000   0.4330129  -0.0000003), wk =   0.0416667
        k(   33) = (  -0.5000000   0.5773506  -0.0000003), wk =   0.0416667
        k(   34) = (  -0.5000000   0.7216882  -0.0000003), wk =   0.0416667
        k(   35) = (  -0.5000000  -0.8660259  -0.0000003), wk =   0.0208333
        k(   36) = (  -0.1250000   0.1443376  -0.0000001), wk =   0.0416667
        k(   37) = (  -0.1250000   0.2886753  -0.0000001), wk =   0.0416667
        k(   38) = (  -0.1250000   0.4330129  -0.0000001), wk =   0.0416667
        k(   39) = (  -0.1250000   0.5773506  -0.0000001), wk =   0.0416667
        k(   40) = (  -0.1250000   0.7216882  -0.0000001), wk =   0.0416667
        k(   41) = (  -0.2500000   0.1443376  -0.0000002), wk =   0.0416667
        k(   42) = (  -0.2500000   0.2886753  -0.0000002), wk =   0.0416667
        k(   43) = (  -0.2500000   0.4330129  -0.0000002), wk =   0.0416667
        k(   44) = (  -0.2500000   0.5773506  -0.0000002), wk =   0.0416667
        k(   45) = (  -0.2500000   0.7216882  -0.0000002), wk =   0.0416667
        k(   46) = (  -0.3750000   0.1443376  -0.0000002), wk =   0.0416667
        k(   47) = (  -0.3750000   0.2886753  -0.0000002), wk =   0.0416667
        k(   48) = (  -0.3750000   0.4330129  -0.0000002), wk =   0.0416667
        k(   49) = (  -0.3750000   0.5773506  -0.0000002), wk =   0.0416667
        k(   50) = (  -0.3750000   0.7216882  -0.0000002), wk =   0.0416667

     Initial potential from superposition of free atoms

     starting charge     285.9971, renormalised to     286.0000

     negative rho (up, down):  2.591E-03 0.000E+00
     Starting wfcs are  234 randomized atomic wfcs
     Checking if some PAW data can be deallocated...

     Self-consistent Calculation

     iteration #  1     ecut=    50.00 Ry     beta= 0.70
     Davidson diagonalization with overlap
     ethr =  1.00E-02,  avg # of iterations =  5.1

     Threshold (ethr) on eigenvalues was too large:
     Diagonalizing with lowered threshold

     Davidson diagonalization with overlap
     ethr =  3.99E-04,  avg # of iterations =  4.3

     negative rho (up, down):  1.818E-03 0.000E+00

     total energy              =  -20152.80726700 Ry
     estimated scf accuracy    <       1.45359798 Ry

[...]

     iteration # 12     ecut=    50.00 Ry     beta= 0.70
     Davidson diagonalization with overlap
     c_bands:  1 eigenvalues not converged
     c_bands:  1 eigenvalues not converged
     ethr =  3.31E-05,  avg # of iterations = 10.1

[...]

     iteration # 18     ecut=    50.00 Ry     beta= 0.70
     Davidson diagonalization with overlap
     c_bands:  1 eigenvalues not converged
     c_bands:  1 eigenvalues not converged
     c_bands:  1 eigenvalues not converged
     ethr =  1.81E-07,  avg # of iterations = 10.6

[...]

     total energy              =  -20153.49326737 Ry
     estimated scf accuracy    <       0.00000125 Ry

     iteration # 32     ecut=    50.00 Ry     beta= 0.70
     Davidson diagonalization with overlap
     ethr =  4.39E-10,  avg # of iterations =  1.9

[...]

     End of self-consistent calculation

          k = 0.0000 0.0000 0.0000 ( 23605 PWs)   bands (ev):

     1.5120   1.6485   1.8888   2.1896   2.5575   2.9475   3.3242   3.6245
     3.8209   3.8880   3.9280   3.9924   4.0623   4.0662   4.0692   4.2061
     4.2173   4.2807   4.3997   4.4265   4.4736   4.5500   4.5573   4.5989
     4.6354   4.6786   4.8399   4.9254   4.9906   5.0278   5.1950   5.3373
     5.4478   5.4502   5.7470   5.9760   6.1409   6.1608   6.1801   6.2262
     6.2479   6.2654   6.3026   6.3126   6.3240   6.3270   6.3367   6.3509
     6.3516   6.3558   6.3736   6.3843   6.4030   6.4046   6.4231   6.4247
     6.4310   6.4603   6.4691   6.4748   6.5119   6.5151   6.5350   6.5430
     6.5565   6.5586   6.5777   6.5784   6.5921   6.6423   6.6469   6.6931
     6.7489   6.7594   6.8651   6.8658   6.8682   6.8686   6.8928   7.0186
     7.0543   7.1389   7.1727   7.2656   7.4808   7.5504   7.5709   7.6314
     7.6528   7.6817   7.6832   7.6941   7.6964   7.7122   7.7252   7.7567
     7.7724   7.8367   7.8549   7.8702   7.8934   7.9416   8.0032   8.0255
     8.0388   8.1203   8.1682   8.1848   8.3200   8.3487   8.3768   8.3874
     8.5082   8.5199   8.5489   8.5660   8.5677   8.6626   8.6929   8.6979
     8.7026   8.7379   8.7544   8.7571   8.7869   8.7886   8.7964   8.8039
     8.8228   8.8326   8.8406   8.8602   8.8821   8.9067   8.9373   8.9735
     9.0158   9.0566   9.1210   9.2153   9.2180   9.4212  10.2102  10.5102
    10.5688  10.6283  10.9363  11.2564  11.4721  11.6287  11.7296  11.7899
    11.8563  11.8783  11.9419  12.1160  12.1188  13.5156  13.7312  13.9740
    14.0188  14.2885  14.5418  14.8665  14.8878  15.0659  15.3452  15.8998
    16.2676  16.4089  16.4592  16.4699

[...]

          k = 0.3750-0.8660 0.0000 ( 23556 PWs)   bands (ev):

[...]

          k =-0.5000 0.0000-0.0000 ( 23442 PWs)   bands (ev):

[...]

          k =-0.3750 0.7217-0.0000 ( 23544 PWs)   bands (ev):

     3.9228   4.0371   4.1700   4.1756   4.1987   4.3031   4.3286   4.3740
     4.3877   4.3992   4.4917   4.4991   4.5041   4.5179   4.5797   4.6382
     4.6596   4.6611   4.6883   4.6959   4.6985   4.7116   4.7664   4.8099
     4.8263   4.8662   4.8889   4.9339   4.9807   5.0191   5.0579   5.0746
     5.1615   5.1879   5.2054   5.2538   5.3879   5.4159   5.5892   5.6532
     5.8205   5.8497   5.9720   6.0489   6.0823   6.1034   6.1380   6.1790
     6.2422   6.2662   6.3417   6.3674   6.3880   6.4101   6.4580   6.4621
     6.5013   6.5079   6.5976   6.6849   6.6960   6.7479   6.7527   6.7644
     6.8718   6.8920   6.9585   7.0216   7.0441   7.0913   7.1806   7.1863
     7.3104   7.3324   7.4141   7.4805   7.4838   7.4931   7.6484   7.6676
     7.7218   7.7701   7.8081   7.9036   7.9674   7.9807   8.0344   8.0682
     8.0829   8.2137   8.2722   8.3042   8.3100   8.3379   8.3714   8.3860
     8.4491   8.4511   8.5117   8.5159   8.5376   8.5523   8.5718   8.5814
     8.5947   8.6046   8.6048   8.6279   8.6558   8.6666   8.6686   8.6939
     8.6964   8.7111   8.7243   8.7251   8.7474   8.7494   8.7711   8.7913
     8.8180   8.8700   8.8767   8.8856   8.9369   8.9815   8.9902   9.0034
     9.0354   9.0625   9.0821   9.1242   9.3591   9.4954   9.5840   9.7725
    10.2186  10.8000  10.8309  10.8594  11.0571  11.1885  11.3716  11.5864
    11.6046  11.9159  12.2677  12.2761  12.5608  12.7010  12.7830  13.0012
    13.0468  13.1001  13.7560  13.7967  13.9036  14.2692  14.3623  14.3799
    14.4662  14.5543  14.7174  14.8926  14.9950  15.0281  15.0753  15.3628
    15.5163  15.9043  15.9933  16.3087

     the Fermi energy is    10.7275 ev

!    total energy              =  -20153.49326711 Ry

     total all-electron energy =   -988623.491634 Ry
     estimated scf accuracy    <       0.00000044 Ry
     smearing contrib. (-TS)   =      -0.02238689 Ry
     internal energy E=F+TS    =  -20153.47088021 Ry

     The total energy is F=E-TS. E is the sum of the following terms:
     one-electron contribution =   -8805.26531197 Ry
     hartree contribution      =    4728.12802048 Ry
     xc contribution           =    -833.63896551 Ry
     ewald contribution        =    2762.65395886 Ry
     one-center paw contrib.   =  -18005.34858207 Ry

     convergence has been achieved in  32 iterations

     negative rho (up, down):  2.445E-03 0.000E+00

     Forces acting on atoms (cartesian axes, Ry/au):

     atom    1 type  1   force =    -0.00007375   -0.00001549   -0.00312179
     atom    2 type  1   force =     0.00004125    0.00000153    0.00354333
     atom    3 type  1   force =     0.00008877   -0.00001949    0.00087144
     atom    4 type  1   force =     0.02088780    0.00812853   -0.04996817
     atom    5 type  1   force =    -0.00000945    0.00002753    0.00011930
     atom    6 type  1   force =     0.00009746    0.00000266    0.00477354
     atom    7 type  1   force =    -0.00006207   -0.00001286    0.00095221
     atom    8 type  1   force =    -0.02084608   -0.00812481    0.04950053
     atom    9 type  1   force =    -0.00001302    0.00000719   -0.00056162
     atom   10 type  1   force =     0.00003696   -0.00000082   -0.00087399
     atom   11 type  1   force =    -0.00012502   -0.00000123   -0.00478788
     atom   12 type  1   force =    -0.00023002    0.00055661    0.00228625
     atom   13 type  1   force =     0.00019014   -0.00055789   -0.00273144
     atom   14 type  1   force =     0.00009449    0.00000654    0.00477703
     atom   15 type  1   force =    -0.00005959   -0.00001539    0.00095802
     atom   16 type  1   force =    -0.02084303   -0.00812603    0.04949684
     atom   17 type  1   force =    -0.00001542    0.00000666   -0.00055529
     atom   18 type  1   force =     0.00003385   -0.00000030   -0.00086785
     atom   19 type  1   force =    -0.00011572    0.00000192   -0.00479442
     atom   20 type  1   force =    -0.00022850    0.00055632    0.00228666
     atom   21 type  1   force =     0.00019485   -0.00055854   -0.00273665
     atom   22 type  1   force =    -0.00006390   -0.00001448   -0.00312637
     atom   23 type  1   force =     0.00004891    0.00000544    0.00354441
     atom   24 type  1   force =     0.00008825   -0.00001964    0.00088007
     atom   25 type  1   force =     0.02089152    0.00813628   -0.04997917
     atom   26 type  1   force =    -0.00000870    0.00002975    0.00011504

     Total force =     0.109862     Total SCF correction =     0.004022

     Writing all to output data dir ./pwscf.save/

     General routines

     Parallel routines

   This run was terminated on:   0:39:36  16Feb2024

   JOB DONE.