     Program PWSCF v.7.0 starts on 15Feb2024 at 23:21:34

     R & G space division:  proc/nbgrp/npool/nimage =      10

     Reading input from GSF111_0.35.in
Warning: card &CELL ignored
Warning: card / ignored

     Current dimensions of program PWSCF are:
     Max number of different atomic species (ntypx) = 10
     Max number of k-points (npk) =  40000
     Max angular momentum in pseudopotentials (lmaxx) =  4

     File ./pwscf.bfgs deleted, as requested
     file Au.pbe-n-kjpaw_psl.1.0.0.UPF: wavefunction(s)  6S 5D renormalized
     Found identity + ( -0.5000  0.5000  0.0000) symmetry
     This is a supercell, fractional translations are disabled

     Using Slab Decomposition

     bravais-lattice index     =            0
     lattice parameter (alat)  =       9.6360  a.u.
     unit-cell volume          =    3935.2145 (a.u.)^3
     number of atoms/cell      =           26
     number of atomic types    =            1
     number of electrons       =       286.00
     number of Kohn-Sham states=          172
     kinetic-energy cutoff     =      50.0000  Ry
     charge density cutoff     =     200.0000  Ry
     scf convergence threshold =      1.0E-06
     mixing beta               =       0.7000
     number of iterations used =            8  plain     mixing
     Exchange-correlation= SLA  PW   PBX  PBC
                           (   1   4   3   4   0   0   0)

     celldm(1)=   9.635999  celldm(2)=   0.000000  celldm(3)=   0.000000
     celldm(4)=   0.000000  celldm(5)=   0.000000  celldm(6)=   0.000000

     crystal axes: (cart. coord. in units of alat)
               a(1) = (   1.000000   0.000000   0.000000 )
               a(2) = (   0.000000   0.577350   0.000000 )
               a(3) = (  -0.000005   0.000000   7.617966 )

     reciprocal axes: (cart. coord. in units 2 pi/alat)
               b(1) = (  1.000000  0.000000  0.000001 )
               b(2) = (  0.000000  1.732052  0.000000 )
               b(3) = (  0.000000  0.000000  0.131269 )

     PseudoPot. # 1 for Au read from file:
     ./Au.pbe-n-kjpaw_psl.1.0.0.UPF
     MD5 check sum: 4db85c736373c707a97ce4c36c2a9d23
     Pseudo is Projector augmented-wave + core cor, Zval = 11.0
     Generated using &quot;atomic&quot; code by A. Dal Corso  v.6.3
     Shape of augmentation charge: PSQ
     Using radial grid of 1279 points,  6 beta functions with:
                l(1) =   0
                l(2) =   0
                l(3) =   1
                l(4) =   1
                l(5) =   2
                l(6) =   2
     Q(r) pseudized with 0 coefficients

     atomic species   valence    mass     pseudopotential
        Au            11.00   196.96657     Au( 1.00)

     No symmetry found

   Cartesian axes

     site n.     atom                  positions (alat units)
         1           Au  tau(   1) = (   0.0000000   0.0000000   0.0000000  )
         2           Au  tau(   2) = (   0.9999954   0.2020728   5.6568550  )
         3           Au  tau(   3) = (   0.9999966   0.2020728   4.2426411  )
         4           Au  tau(   4) = (   0.9999976   0.0000000   2.8284275  )
         5           Au  tau(   5) = (   0.9999988   0.0000000   1.4142138  )
         6           Au  tau(   6) = (   0.3333329   0.0000000   0.4714045  )
         7           Au  tau(   7) = (   0.3333296   0.2020728   4.7140455  )
         8           Au  tau(   8) = (   0.3333308   0.2020728   3.2998319  )
         9           Au  tau(   9) = (   0.3333318   0.0000000   1.8856185  )
        10           Au  tau(  10) = (   0.6666659   0.0000000   0.9428093  )
        11           Au  tau(  11) = (   0.6666625   0.2020728   5.1854506  )
        12           Au  tau(  12) = (   0.6666637   0.2020728   3.7712367  )
        13           Au  tau(  13) = (   0.6666649   0.0000000   2.3570234  )
        14           Au  tau(  14) = (   0.8333330   0.2886749   0.4714045  )
        15           Au  tau(  15) = (   0.8333294   0.4907478   4.7140455  )
        16           Au  tau(  16) = (   0.8333306   0.4907478   3.2998319  )
        17           Au  tau(  17) = (   0.8333318   0.2886749   1.8856185  )
        18           Au  tau(  18) = (   0.1666658   0.2886749   0.9428093  )
        19           Au  tau(  19) = (   0.1666624   0.4907478   5.1854506  )
        20           Au  tau(  20) = (   0.1666636   0.4907478   3.7712367  )
        21           Au  tau(  21) = (   0.1666648   0.2886749   2.3570234  )
        22           Au  tau(  22) = (   0.5000001   0.2886749   0.0000000  )
        23           Au  tau(  23) = (   0.4999955   0.4907478   5.6568550  )
        24           Au  tau(  24) = (   0.4999965   0.4907478   4.2426411  )
        25           Au  tau(  25) = (   0.4999977   0.2886749   2.8284275  )
        26           Au  tau(  26) = (   0.4999989   0.2886749   1.4142138  )

     number of k points=    50  Gaussian smearing, width (Ry)=  0.0200
                       cart. coord. in units 2pi/alat
        k(    1) = (   0.0000000   0.0000000   0.0000000), wk =   0.0208333
        k(    2) = (   0.0000000   0.1443376   0.0000000), wk =   0.0416667
        k(    3) = (   0.0000000   0.2886753   0.0000000), wk =   0.0416667
        k(    4) = (   0.0000000   0.4330129   0.0000000), wk =   0.0416667
        k(    5) = (   0.0000000   0.5773506   0.0000000), wk =   0.0416667
        k(    6) = (   0.0000000   0.7216882   0.0000000), wk =   0.0416667
        k(    7) = (   0.0000000  -0.8660259   0.0000000), wk =   0.0208333
        k(    8) = (   0.1250000   0.0000000   0.0000001), wk =   0.0416667
        k(    9) = (   0.1250000   0.1443376   0.0000001), wk =   0.0416667
        k(   10) = (   0.1250000   0.2886753   0.0000001), wk =   0.0416667
        k(   11) = (   0.1250000   0.4330129   0.0000001), wk =   0.0416667
        k(   12) = (   0.1250000   0.5773506   0.0000001), wk =   0.0416667
        k(   13) = (   0.1250000   0.7216882   0.0000001), wk =   0.0416667
        k(   14) = (   0.1250000  -0.8660259   0.0000001), wk =   0.0416667
        k(   15) = (   0.2500000   0.0000000   0.0000002), wk =   0.0416667
        k(   16) = (   0.2500000   0.1443376   0.0000002), wk =   0.0416667
        k(   17) = (   0.2500000   0.2886753   0.0000002), wk =   0.0416667
        k(   18) = (   0.2500000   0.4330129   0.0000002), wk =   0.0416667
        k(   19) = (   0.2500000   0.5773506   0.0000002), wk =   0.0416667
        k(   20) = (   0.2500000   0.7216882   0.0000002), wk =   0.0416667
        k(   21) = (   0.2500000  -0.8660259   0.0000002), wk =   0.0416667
        k(   22) = (   0.3750000   0.0000000   0.0000002), wk =   0.0416667
        k(   23) = (   0.3750000   0.1443376   0.0000002), wk =   0.0416667
        k(   24) = (   0.3750000   0.2886753   0.0000002), wk =   0.0416667
        k(   25) = (   0.3750000   0.4330129   0.0000002), wk =   0.0416667
        k(   26) = (   0.3750000   0.5773506   0.0000002), wk =   0.0416667
        k(   27) = (   0.3750000   0.7216882   0.0000002), wk =   0.0416667
        k(   28) = (   0.3750000  -0.8660259   0.0000002), wk =   0.0416667
        k(   29) = (  -0.5000000   0.0000000  -0.0000003), wk =   0.0208333
        k(   30) = (  -0.5000000   0.1443376  -0.0000003), wk =   0.0416667
        k(   31) = (  -0.5000000   0.2886753  -0.0000003), wk =   0.0416667
        k(   32) = (  -0.5000000   0.4330129  -0.0000003), wk =   0.0416667
        k(   33) = (  -0.5000000   0.5773506  -0.0000003), wk =   0.0416667
        k(   34) = (  -0.5000000   0.7216882  -0.0000003), wk =   0.0416667
        k(   35) = (  -0.5000000  -0.8660259  -0.0000003), wk =   0.0208333
        k(   36) = (  -0.1250000   0.1443376  -0.0000001), wk =   0.0416667
        k(   37) = (  -0.1250000   0.2886753  -0.0000001), wk =   0.0416667
        k(   38) = (  -0.1250000   0.4330129  -0.0000001), wk =   0.0416667
        k(   39) = (  -0.1250000   0.5773506  -0.0000001), wk =   0.0416667
        k(   40) = (  -0.1250000   0.7216882  -0.0000001), wk =   0.0416667
        k(   41) = (  -0.2500000   0.1443376  -0.0000002), wk =   0.0416667
        k(   42) = (  -0.2500000   0.2886753  -0.0000002), wk =   0.0416667
        k(   43) = (  -0.2500000   0.4330129  -0.0000002), wk =   0.0416667
        k(   44) = (  -0.2500000   0.5773506  -0.0000002), wk =   0.0416667
        k(   45) = (  -0.2500000   0.7216882  -0.0000002), wk =   0.0416667
        k(   46) = (  -0.3750000   0.1443376  -0.0000002), wk =   0.0416667
        k(   47) = (  -0.3750000   0.2886753  -0.0000002), wk =   0.0416667
        k(   48) = (  -0.3750000   0.4330129  -0.0000002), wk =   0.0416667
        k(   49) = (  -0.3750000   0.5773506  -0.0000002), wk =   0.0416667
        k(   50) = (  -0.3750000   0.7216882  -0.0000002), wk =   0.0416667

     Initial potential from superposition of free atoms

     starting charge     285.9971, renormalised to     286.0000

     negative rho (up, down):  2.500E-03 0.000E+00
     Starting wfcs are  234 randomized atomic wfcs
     Checking if some PAW data can be deallocated...

     Self-consistent Calculation

     iteration #  1     ecut=    50.00 Ry     beta= 0.70
     Davidson diagonalization with overlap
     ethr =  1.00E-02,  avg # of iterations =  4.9

     Threshold (ethr) on eigenvalues was too large:
     Diagonalizing with lowered threshold

     Davidson diagonalization with overlap
     ethr =  4.02E-04,  avg # of iterations =  4.4

     negative rho (up, down):  1.733E-03 0.000E+00

     total energy              =  -20152.80398985 Ry
     estimated scf accuracy    <       1.46274754 Ry

     iteration #  2     ecut=    50.00 Ry     beta= 0.70
     Davidson diagonalization with overlap
     c_bands:  5 eigenvalues not converged
     ethr =  5.11E-04,  avg # of iterations = 16.1

[...]

     iteration # 18     ecut=    50.00 Ry     beta= 0.70
     Davidson diagonalization with overlap
     c_bands:  1 eigenvalues not converged
     ethr =  7.43E-08,  avg # of iterations =  7.9

[...]

     total energy              =  -20153.49813301 Ry
     estimated scf accuracy    <       0.00000150 Ry

     iteration # 32     ecut=    50.00 Ry     beta= 0.70
     Davidson diagonalization with overlap
     ethr =  5.26E-10,  avg # of iterations =  1.0

[...]

     End of self-consistent calculation

          k = 0.0000 0.0000 0.0000 ( 23605 PWs)   bands (ev):

     1.5113   1.6491   1.8881   2.1897   2.5567   2.9469   3.3236   3.6247
     3.8204   3.8898   3.9333   3.9780   4.0633   4.0672   4.0699   4.2065
     4.2201   4.2820   4.4020   4.4269   4.4858   4.5485   4.5594   4.5996
     4.6396   4.6808   4.8317   4.9105   4.9887   5.0131   5.1814   5.3850
     5.4502   5.5159   5.7482   5.9721   6.1392   6.1523   6.1775   6.2268
     6.2485   6.2660   6.3034   6.3135   6.3208   6.3294   6.3351   6.3517
     6.3521   6.3769   6.3790   6.3820   6.4032   6.4040   6.4272   6.4280
     6.4306   6.4553   6.4691   6.4771   6.5107   6.5178   6.5350   6.5421
     6.5577   6.5595   6.5753   6.5912   6.5976   6.6540   6.6662   6.6886
     6.7575   6.7608   6.8663   6.8666   6.8692   6.8694   6.8805   7.0348
     7.0623   7.1414   7.1802   7.2765   7.4729   7.5294   7.5554   7.5846
     7.6469   7.6833   7.6840   7.6955   7.6958   7.7169   7.7229   7.7614
     7.7785   7.8290   7.8747   7.8777   7.8893   7.9383   8.0104   8.0262
     8.0337   8.1140   8.1757   8.1832   8.3357   8.3459   8.3782   8.3881
     8.5087   8.5238   8.5297   8.5571   8.5674   8.6491   8.6953   8.6988
     8.7030   8.7322   8.7559   8.7574   8.7809   8.7971   8.7977   8.8043
     8.8221   8.8335   8.8405   8.8607   8.8818   8.9055   8.9373   8.9684
     9.0159   9.0453   9.1221   9.2161   9.2186   9.4189  10.2093  10.5102
    10.5680  10.6287  10.9357  11.2548  11.4718  11.6284  11.7296  11.7911
    11.8558  11.8795  11.9381  12.1171  12.1196  13.5212  13.7319  13.9774
    14.0079  14.2890  14.5436  14.8670  14.8880  15.0696  15.3463  15.9000
    16.2585  16.4058  16.4609  16.4710

[...]

          k = 0.3750-0.8660 0.0000 ( 23556 PWs)   bands (ev):

[...]

          k =-0.5000 0.0000-0.0000 ( 23442 PWs)   bands (ev):

[...]

          k =-0.3750 0.7217-0.0000 ( 23544 PWs)   bands (ev):

     3.9125   4.0423   4.1775   4.1801   4.2009   4.3097   4.3238   4.3738
     4.3919   4.4053   4.4857   4.4979   4.5132   4.5212   4.5725   4.6369
     4.6542   4.6575   4.6859   4.6975   4.6987   4.7159   4.7679   4.8090
     4.8285   4.8668   4.8800   4.9377   4.9792   5.0104   5.0574   5.0769
     5.1633   5.1919   5.2104   5.2539   5.4101   5.4399   5.5943   5.6814
     5.8231   5.8589   5.9662   6.0473   6.0810   6.1092   6.1364   6.1928
     6.2361   6.2813   6.3467   6.3672   6.3977   6.4076   6.4603   6.4632
     6.5037   6.5099   6.5919   6.6905   6.6951   6.7480   6.7497   6.7679
     6.8639   6.8886   6.9558   7.0142   7.0551   7.0977   7.1747   7.1933
     7.2998   7.3240   7.4184   7.4757   7.4814   7.5007   7.6393   7.6622
     7.7164   7.7823   7.8121   7.8944   7.9686   7.9707   8.0287   8.0685
     8.0877   8.2138   8.2685   8.3085   8.3102   8.3410   8.3683   8.3777
     8.4574   8.4657   8.5131   8.5171   8.5389   8.5486   8.5738   8.5807
     8.5899   8.6006   8.6058   8.6261   8.6539   8.6652   8.6659   8.6955
     8.6959   8.7106   8.7258   8.7287   8.7470   8.7521   8.7727   8.7980
     8.8233   8.8708   8.8810   8.8878   8.9441   8.9805   8.9878   8.9885
     9.0373   9.0410   9.0513   9.1357   9.3622   9.5013   9.5851   9.7713
    10.2172  10.8018  10.8305  10.8584  11.0615  11.1833  11.3690  11.5871
    11.5971  11.9062  12.2591  12.2722  12.5419  12.7012  12.7905  13.0051
    13.0507  13.0971  13.7470  13.7760  13.8967  14.2702  14.3519  14.3871
    14.4576  14.5558  14.7228  14.9412  14.9951  15.0653  15.0917  15.3499
    15.5231  15.8836  16.0016  16.3064

     the Fermi energy is    10.7286 ev

!    total energy              =  -20153.49813291 Ry

     total all-electron energy =   -988623.496500 Ry
     estimated scf accuracy    <       0.00000019 Ry
     smearing contrib. (-TS)   =      -0.02240105 Ry
     internal energy E=F+TS    =  -20153.47573186 Ry

     The total energy is F=E-TS. E is the sum of the following terms:
     one-electron contribution =   -8805.07887780 Ry
     hartree contribution      =    4728.03075439 Ry
     xc contribution           =    -833.63149804 Ry
     ewald contribution        =    2762.55021339 Ry
     one-center paw contrib.   =  -18005.34632380 Ry

     convergence has been achieved in  32 iterations

     negative rho (up, down):  2.351E-03 0.000E+00

     Forces acting on atoms (cartesian axes, Ry/au):

     atom    1 type  1   force =    -0.00007041   -0.00000501   -0.00311116
     atom    2 type  1   force =     0.00004557    0.00004565    0.00333704
     atom    3 type  1   force =     0.00008217    0.00005725    0.00077667
     atom    4 type  1   force =     0.01802826    0.01061808   -0.04266322
     atom    5 type  1   force =    -0.00002190   -0.00002074   -0.00005143
     atom    6 type  1   force =     0.00009174   -0.00000723    0.00484787
     atom    7 type  1   force =    -0.00005058    0.00001225    0.00102880
     atom    8 type  1   force =    -0.01799291   -0.01060650    0.04229076
     atom    9 type  1   force =    -0.00001687   -0.00001711   -0.00043507
     atom   10 type  1   force =     0.00002558   -0.00000322   -0.00094648
     atom   11 type  1   force =    -0.00010283    0.00006248   -0.00470893
     atom   12 type  1   force =    -0.00019357    0.00082494    0.00194027
     atom   13 type  1   force =     0.00016671   -0.00078182   -0.00230373
     atom   14 type  1   force =     0.00008784   -0.00000726    0.00485043
     atom   15 type  1   force =    -0.00004361   -0.00004327    0.00103272
     atom   16 type  1   force =    -0.01799605   -0.01066830    0.04228545
     atom   17 type  1   force =    -0.00001586   -0.00001566   -0.00042981
     atom   18 type  1   force =     0.00002738   -0.00000852   -0.00094872
     atom   19 type  1   force =    -0.00010967    0.00000076   -0.00470990
     atom   20 type  1   force =    -0.00019382    0.00076244    0.00193926
     atom   21 type  1   force =     0.00017349   -0.00077875   -0.00230080
     atom   22 type  1   force =    -0.00006643   -0.00001166   -0.00309372
     atom   23 type  1   force =     0.00004732   -0.00001130    0.00333255
     atom   24 type  1   force =     0.00008225   -0.00000140    0.00076586
     atom   25 type  1   force =     0.01803577    0.01062252   -0.04267591
     atom   26 type  1   force =    -0.00001957   -0.00001865   -0.00004879

     Total force =     0.095535     Total SCF correction =     0.002646

     Writing all to output data dir ./pwscf.save/

     General routines

     Parallel routines

   This run was terminated on:   0: 0:45  16Feb2024

   JOB DONE.