     Program PWSCF v.7.0 starts on 15Feb2024 at  7:39:35

     R & G space division:  proc/nbgrp/npool/nimage =      10

     Reading input from GSF111R_0.3.in
Warning: card &CELL ignored
Warning: card / ignored

     Current dimensions of program PWSCF are:
     Max number of different atomic species (ntypx) = 10
     Max number of k-points (npk) =  40000
     Max angular momentum in pseudopotentials (lmaxx) =  4
     file Au.pbe-n-kjpaw_psl.1.0.0.UPF: wavefunction(s)  6S 5D renormalized
     Found identity + ( -0.5000  0.5000  0.0000) symmetry
     This is a supercell, fractional translations are disabled

     Using Slab Decomposition

     bravais-lattice index     =            0
     lattice parameter (alat)  =       9.6360  a.u.
     unit-cell volume          =    3935.2145 (a.u.)^3
     number of atoms/cell      =           26
     number of atomic types    =            1
     number of electrons       =       286.00
     number of Kohn-Sham states=          172
     kinetic-energy cutoff     =      50.0000  Ry
     charge density cutoff     =     200.0000  Ry
     scf convergence threshold =      1.0E-06
     mixing beta               =       0.1000
     number of iterations used =            8  plain     mixing
     energy convergence thresh.=      1.0E-04
     force convergence thresh. =      1.0E-03
     Exchange-correlation= SLA  PW   PBX  PBC
                           (   1   4   3   4   0   0   0)
     nstep                     =           50

     celldm(1)=   9.635999  celldm(2)=   0.000000  celldm(3)=   0.000000
     celldm(4)=   0.000000  celldm(5)=   0.000000  celldm(6)=   0.000000

     crystal axes: (cart. coord. in units of alat)
               a(1) = (   1.000000   0.000000   0.000000 )
               a(2) = (   0.000000   0.577350   0.000000 )
               a(3) = (  -0.000005   0.000000   7.617966 )

     reciprocal axes: (cart. coord. in units 2 pi/alat)
               b(1) = (  1.000000  0.000000  0.000001 )
               b(2) = (  0.000000  1.732052  0.000000 )
               b(3) = (  0.000000  0.000000  0.131269 )

     PseudoPot. # 1 for Au read from file:
     ./Au.pbe-n-kjpaw_psl.1.0.0.UPF
     MD5 check sum: 4db85c736373c707a97ce4c36c2a9d23
     Pseudo is Projector augmented-wave + core cor, Zval = 11.0
     Generated using &quot;atomic&quot; code by A. Dal Corso  v.6.3
     Shape of augmentation charge: PSQ
     Using radial grid of 1279 points,  6 beta functions with:
                l(1) =   0
                l(2) =   0
                l(3) =   1
                l(4) =   1
                l(5) =   2
                l(6) =   2
     Q(r) pseudized with 0 coefficients

     atomic species   valence    mass     pseudopotential
        Au            11.00   196.96657     Au( 1.00)

     No symmetry found

   Cartesian axes

     site n.     atom                  positions (alat units)
         1           Au  tau(   1) = (   0.0000000   0.0000000   0.0000000  )
         2           Au  tau(   2) = (   0.9999954   0.1732053   5.6568550  )
         3           Au  tau(   3) = (   0.9999966   0.1732053   4.2426411  )
         4           Au  tau(   4) = (   0.9999976   0.0000000   2.8284275  )
         5           Au  tau(   5) = (   0.9999988   0.0000000   1.4142138  )
         6           Au  tau(   6) = (   0.3333329   0.0000000   0.4714045  )
         7           Au  tau(   7) = (   0.3333296   0.1732053   4.7140455  )
         8           Au  tau(   8) = (   0.3333308   0.1732053   3.2998319  )
         9           Au  tau(   9) = (   0.3333318   0.0000000   1.8856185  )
        10           Au  tau(  10) = (   0.6666659   0.0000000   0.9428093  )
        11           Au  tau(  11) = (   0.6666625   0.1732053   5.1854506  )
        12           Au  tau(  12) = (   0.6666637   0.1732053   3.7712367  )
        13           Au  tau(  13) = (   0.6666649   0.0000000   2.3570234  )
        14           Au  tau(  14) = (   0.8333330   0.2886749   0.4714045  )
        15           Au  tau(  15) = (   0.8333294   0.4618802   4.7140455  )
        16           Au  tau(  16) = (   0.8333306   0.4618802   3.2998319  )
        17           Au  tau(  17) = (   0.8333318   0.2886749   1.8856185  )
        18           Au  tau(  18) = (   0.1666658   0.2886749   0.9428093  )
        19           Au  tau(  19) = (   0.1666624   0.4618802   5.1854506  )
        20           Au  tau(  20) = (   0.1666636   0.4618802   3.7712367  )
        21           Au  tau(  21) = (   0.1666648   0.2886749   2.3570234  )
        22           Au  tau(  22) = (   0.5000001   0.2886749   0.0000000  )
        23           Au  tau(  23) = (   0.4999955   0.4618802   5.6568550  )
        24           Au  tau(  24) = (   0.4999965   0.4618802   4.2426411  )
        25           Au  tau(  25) = (   0.4999977   0.2886749   2.8284275  )
        26           Au  tau(  26) = (   0.4999989   0.2886749   1.4142138  )

     number of k points=    50  Gaussian smearing, width (Ry)=  0.0020
                       cart. coord. in units 2pi/alat
        k(    1) = (   0.0000000   0.0000000   0.0000000), wk =   0.0208333
        k(    2) = (   0.0000000   0.1443376   0.0000000), wk =   0.0416667
        k(    3) = (   0.0000000   0.2886753   0.0000000), wk =   0.0416667
        k(    4) = (   0.0000000   0.4330129   0.0000000), wk =   0.0416667
        k(    5) = (   0.0000000   0.5773506   0.0000000), wk =   0.0416667
        k(    6) = (   0.0000000   0.7216882   0.0000000), wk =   0.0416667
        k(    7) = (   0.0000000  -0.8660259   0.0000000), wk =   0.0208333
        k(    8) = (   0.1250000   0.0000000   0.0000001), wk =   0.0416667
        k(    9) = (   0.1250000   0.1443376   0.0000001), wk =   0.0416667
        k(   10) = (   0.1250000   0.2886753   0.0000001), wk =   0.0416667
        k(   11) = (   0.1250000   0.4330129   0.0000001), wk =   0.0416667
        k(   12) = (   0.1250000   0.5773506   0.0000001), wk =   0.0416667
        k(   13) = (   0.1250000   0.7216882   0.0000001), wk =   0.0416667
        k(   14) = (   0.1250000  -0.8660259   0.0000001), wk =   0.0416667
        k(   15) = (   0.1250000  -0.7216882   0.0000001), wk =   0.0416667
        k(   16) = (   0.1250000  -0.5773506   0.0000001), wk =   0.0416667
        k(   17) = (   0.1250000  -0.4330129   0.0000001), wk =   0.0416667
        k(   18) = (   0.1250000  -0.2886753   0.0000001), wk =   0.0416667
        k(   19) = (   0.1250000  -0.1443376   0.0000001), wk =   0.0416667
        k(   20) = (   0.2500000   0.0000000   0.0000002), wk =   0.0416667
        k(   21) = (   0.2500000   0.1443376   0.0000002), wk =   0.0416667
        k(   22) = (   0.2500000   0.2886753   0.0000002), wk =   0.0416667
        k(   23) = (   0.2500000   0.4330129   0.0000002), wk =   0.0416667
        k(   24) = (   0.2500000   0.5773506   0.0000002), wk =   0.0416667
        k(   25) = (   0.2500000   0.7216882   0.0000002), wk =   0.0416667
        k(   26) = (   0.2500000  -0.8660259   0.0000002), wk =   0.0416667
        k(   27) = (   0.2500000  -0.7216882   0.0000002), wk =   0.0416667
        k(   28) = (   0.2500000  -0.5773506   0.0000002), wk =   0.0416667
        k(   29) = (   0.2500000  -0.4330129   0.0000002), wk =   0.0416667
        k(   30) = (   0.2500000  -0.2886753   0.0000002), wk =   0.0416667
        k(   31) = (   0.2500000  -0.1443376   0.0000002), wk =   0.0416667
        k(   32) = (   0.3750000   0.0000000   0.0000002), wk =   0.0416667
        k(   33) = (   0.3750000   0.1443376   0.0000002), wk =   0.0416667
        k(   34) = (   0.3750000   0.2886753   0.0000002), wk =   0.0416667
        k(   35) = (   0.3750000   0.4330129   0.0000002), wk =   0.0416667
        k(   36) = (   0.3750000   0.5773506   0.0000002), wk =   0.0416667
        k(   37) = (   0.3750000   0.7216882   0.0000002), wk =   0.0416667
        k(   38) = (   0.3750000  -0.8660259   0.0000002), wk =   0.0416667
        k(   39) = (   0.3750000  -0.7216882   0.0000002), wk =   0.0416667
        k(   40) = (   0.3750000  -0.5773506   0.0000002), wk =   0.0416667
        k(   41) = (   0.3750000  -0.4330129   0.0000002), wk =   0.0416667
        k(   42) = (   0.3750000  -0.2886753   0.0000002), wk =   0.0416667
        k(   43) = (   0.3750000  -0.1443376   0.0000002), wk =   0.0416667
        k(   44) = (  -0.5000000   0.0000000  -0.0000003), wk =   0.0208333
        k(   45) = (  -0.5000000   0.1443376  -0.0000003), wk =   0.0416667
        k(   46) = (  -0.5000000   0.2886753  -0.0000003), wk =   0.0416667
        k(   47) = (  -0.5000000   0.4330129  -0.0000003), wk =   0.0416667
        k(   48) = (  -0.5000000   0.5773506  -0.0000003), wk =   0.0416667
        k(   49) = (  -0.5000000   0.7216882  -0.0000003), wk =   0.0416667
        k(   50) = (  -0.5000000  -0.8660259  -0.0000003), wk =   0.0208333

     Initial potential from superposition of free atoms

     starting charge     285.9971, renormalised to     286.0000

     negative rho (up, down):  2.643E-03 0.000E+00
     Starting wfcs are  234 randomized atomic wfcs
     Checking if some PAW data can be deallocated...

     Self-consistent Calculation

     iteration #  1     ecut=    50.00 Ry     beta= 0.10
     Davidson diagonalization with overlap
     ethr =  1.00E-02,  avg # of iterations =  5.0

     Threshold (ethr) on eigenvalues was too large:
     Diagonalizing with lowered threshold

     Davidson diagonalization with overlap
     ethr =  3.92E-04,  avg # of iterations =  4.8

     negative rho (up, down):  2.507E-03 0.000E+00

     total energy              =  -20153.64694090 Ry
     estimated scf accuracy    <       1.43434144 Ry

[...]

     iteration #  7     ecut=    50.00 Ry     beta= 0.10
     Davidson diagonalization with overlap
     c_bands:  1 eigenvalues not converged
     c_bands:  3 eigenvalues not converged
     c_bands:  1 eigenvalues not converged
     c_bands:  1 eigenvalues not converged
     c_bands:  1 eigenvalues not converged
     ethr =  2.24E-05,  avg # of iterations = 14.0

[...]

     End of self-consistent calculation

          k = 0.0000 0.0000 0.0000 ( 23605 PWs)   bands (ev):

     1.5110   1.6519   1.8910   2.1937   2.5571   2.9484   3.3250   3.6283
     3.8200   3.8912   3.9408   3.9636   4.0672   4.0745   4.0769   4.2078
     4.2282   4.2861   4.4091   4.4329   4.5028   4.5488   4.5665   4.6038
     4.6474   4.6882   4.8161   4.8980   4.9901   5.0096   5.1737   5.4314
     5.4814   5.6058   5.7533   5.9715   6.1400   6.1472   6.1768   6.2291
     6.2490   6.2705   6.3115   6.3197   6.3212   6.3323   6.3405   6.3546
     6.3549   6.3800   6.3874   6.3929   6.4061   6.4070   6.4292   6.4362
     6.4404   6.4565   6.4758   6.4844   6.5130   6.5251   6.5368   6.5464
     6.5635   6.5649   6.5772   6.5925   6.6228   6.6588   6.6869   6.6956
     6.7597   6.7681   6.8726   6.8729   6.8734   6.8742   6.8744   7.0420
     7.0779   7.1468   7.1862   7.2937   7.4679   7.5190   7.5293   7.5631
     7.6407   7.6834   7.6843   7.6974   7.7001   7.7255   7.7276   7.7695
     7.7898   7.8244   7.8858   7.8906   7.8999   7.9387   8.0200   8.0282
     8.0296   8.1094   8.1837   8.1892   8.3413   8.3532   8.3833   8.3914
[...]
     estimated scf accuracy    <       0.00000085 Ry
     smearing contrib. (-TS)   =      -0.00028981 Ry
     internal energy E=F+TS    =  -20153.49228865 Ry

     The total energy is F=E-TS. E is the sum of the following terms:
     one-electron contribution =   -8804.95222879 Ry
     hartree contribution      =    4728.01961840 Ry
     xc contribution           =    -833.63564627 Ry
     ewald contribution        =    2762.42029749 Ry
     one-center paw contrib.   =  -18005.34432948 Ry

     convergence has been achieved in  22 iterations

[...]

     Forces acting on atoms (cartesian axes, Ry/au):

     atom    1 type  1   force =    -0.00001953    0.00005146   -0.00281711
     atom    2 type  1   force =    -0.00002103   -0.00005525    0.00274720
     atom    3 type  1   force =     0.00005439   -0.00000533    0.00051269
     atom    4 type  1   force =     0.01460706    0.01166188   -0.03380286
     atom    5 type  1   force =     0.00000616    0.00003285    0.00003235
     atom    6 type  1   force =     0.00004196   -0.00000075    0.00481963
     atom    7 type  1   force =    -0.00011067   -0.00002122    0.00190451
     atom    8 type  1   force =    -0.01446403   -0.01172377    0.03388983
     atom    9 type  1   force =    -0.00000170   -0.00003770   -0.00089778
     atom   10 type  1   force =     0.00010380    0.00001346   -0.00193212
     atom   11 type  1   force =    -0.00005217    0.00000783   -0.00481700
     atom   12 type  1   force =    -0.00019686    0.00095125    0.00202990
     atom   13 type  1   force =     0.00004195   -0.00087941   -0.00165744
     atom   14 type  1   force =     0.00002809   -0.00000203    0.00482451
     atom   15 type  1   force =    -0.00010936   -0.00002222    0.00191157
     atom   16 type  1   force =    -0.01445722   -0.01172145    0.03389440
     atom   17 type  1   force =     0.00000897   -0.00003276   -0.00089753
     atom   18 type  1   force =     0.00009692    0.00001827   -0.00194085
     atom   19 type  1   force =    -0.00005148    0.00000922   -0.00483017
     atom   20 type  1   force =    -0.00017835    0.00095027    0.00202815
     atom   21 type  1   force =     0.00003339   -0.00088615   -0.00165297
     atom   22 type  1   force =     0.00000266    0.00006605   -0.00279485
     atom   23 type  1   force =    -0.00001747   -0.00006592    0.00273900
     atom   24 type  1   force =     0.00006551   -0.00000793    0.00050065
     atom   25 type  1   force =     0.01459573    0.01166661   -0.03381446
     atom   26 type  1   force =    -0.00000670    0.00003271    0.00002075

     Total force =     0.068832     Total SCF correction =     0.003534

     BFGS Geometry Optimization
     Energy error            =      0.0E+00 Ry
     Gradient error          =      3.4E-02 Ry/Bohr

     number of scf cycles    =   1
     number of bfgs steps    =   0

     energy             new  =  -20153.4925784552 Ry

     new trust radius        =       0.0338943999 bohr
     new conv_thr            =       0.0000010000 Ry

ATOMIC_POSITIONS (angstrom)
Au            0.0000000000        0.0000000000       -0.0014907507    0   0   1
Au            5.0991277561        0.8832000000       28.8466124568    0   0   1
Au            5.0991339819        0.8832000000       21.6341394788    0   0   1
Au            5.0991389889        0.0000000000       14.4046916501    0   0   1
Au            5.0991452147        0.0000000000        7.2113068212    0   0   1
Au            1.6997150733        0.0000000000        2.4063134576    0   0   1
Au            1.6996977676        0.8832000000       24.0386383099    0   0   1
Au            1.6997039934        0.8832000000       16.8442754502    0   0   1
Au            1.6997090005        0.0000000000        9.6145786998    0   0   1
Au            3.3994301414        0.0000000000        4.8065044269    0   0   1
Au            3.3994129888        0.8832000000       26.4388473405    0   0   1
Au            3.3994189086        0.8832000000       19.2311799796    0   0   1
Au            3.3994248284        0.0000000000       12.0179416638    0   0   1
Au            4.2492909414        1.4719970299        2.4063160381    0   0   1
Au            4.2492725751        2.3551970299       24.0386420442    0   0   1
Au            4.2492788009        2.3551970299       16.8442778668    0   0   1
Au            4.2492850215        1.4719970299        9.6145788293    0   0   1
Au            0.8498539674        1.4719970299        4.8064998094    0   0   1
Au            0.8498368147        2.3551970299       26.4388403705    0   0   1
Au            0.8498428875        2.3551970299       19.2311790496    0   0   1
Au            0.8498488838        1.4719970299       12.0179440307    0   0   1
Au            2.5495761740        1.4719970299       -0.0014789703    0   0   1
Au            2.5495526478        2.3551970299       28.8466081202    0   0   1
Au            2.5495578078        2.3551970299       21.6341331076    0   0   1
Au            2.5495637276        1.4719970299       14.4046855090    0   0   1
Au            2.5495699534        1.4719970299        7.2113006869    0   0   1

     Writing config-only to output data dir ./pwscf.save/
     NEW-OLD atomic charge density approx. for the potential

[...]

     Total force =     0.047474     Total SCF correction =     0.003443
     Energy error            =      3.9E-03 Ry
     Gradient error          =      2.3E-02 Ry/Bohr

[...]

     energy             old  =  -20153.4925784552 Ry
     energy             new  =  -20153.4964858010 Ry

     CASE: energy            _new < energy            _old

[...]

     iteration #  2     ecut=    50.00 Ry     beta= 0.10
     Davidson diagonalization with overlap
     c_bands:  1 eigenvalues not converged
     ethr =  1.21E-06,  avg # of iterations =  6.6

[...]

     Total force =     0.004108     Total SCF correction =     0.000470
     SCF correction compared to forces is large: reduce conv_thr to get better values
     Energy error            =      3.9E-05 Ry
     Gradient error          =      1.9E-03 Ry/Bohr

[...]

     Total force =     0.003358     Total SCF correction =     0.000365
     SCF correction compared to forces is large: reduce conv_thr to get better values
     Energy error            =      1.7E-05 Ry
     Gradient error          =      1.2E-03 Ry/Bohr

[...]

     number of scf cycles    =  31
     number of bfgs steps    =  30

     energy             old  =  -20153.5030799158 Ry
     energy             new  =  -20153.5030993522 Ry

     CASE: energy            _new < energy            _old

     new trust radius        =       0.0133802276 bohr
     new conv_thr            =       0.0000000100 Ry

ATOMIC_POSITIONS (angstrom)
Au            0.0000000000        0.0000000000       -0.0932631946    0   0   1
Au            5.0991277561        0.8832000000       28.9723603699    0   0   1
Au            5.0991339819        0.8832000000       21.7309470458    0   0   1
Au            5.0991389889        0.0000000000       14.3397308925    0   0   1
Au            5.0991452147        0.0000000000        7.1226007803    0   0   1
Au            1.6997150733        0.0000000000        2.3392933276    0   0   1
Au            1.6996977676        0.8832000000       24.1380952875    0   0   1
Au            1.6997039934        0.8832000000       16.9111701437    0   0   1
Au            1.6997090005        0.0000000000        9.5221752308    0   0   1
Au            3.3994301414        0.0000000000        4.7266270091    0   0   1
Au            3.3994129888        0.8832000000       26.5319162568    0   0   1
Au            3.3994189086        0.8832000000       19.3271867618    0   0   1
Au            3.3994248284        0.0000000000       11.9247191627    0   0   1
Au            4.2492909414        1.4719970299        2.3391870988    0   0   1
Au            4.2492725751        2.3551970299       24.1381099371    0   0   1
Au            4.2492788009        2.3551970299       16.9111462869    0   0   1
Au            4.2492850215        1.4719970299        9.5221723954    0   0   1
Au            0.8498539674        1.4719970299        4.7266499153    0   0   1
Au            0.8498368147        2.3551970299       26.5319329875    0   0   1
Au            0.8498428875        2.3551970299       19.3271819298    0   0   1
Au            0.8498488838        1.4719970299       11.9247281529    0   0   1
Au            2.5495761740        1.4719970299       -0.0931117734    0   0   1
Au            2.5495526478        2.3551970299       28.9722302738    0   0   1
Au            2.5495578078        2.3551970299       21.7309808013    0   0   1
Au            2.5495637276        1.4719970299       14.3397502683    0   0   1
Au            2.5495699534        1.4719970299        7.1225481287    0   0   1

     Writing config-only to output data dir ./pwscf.save/
     NEW-OLD atomic charge density approx. for the potential

[...]

     Self-consistent Calculation

[...]

     Threshold (ethr) on eigenvalues was too large:
     Diagonalizing with lowered threshold

     Davidson diagonalization with overlap
     ethr =  5.09E-08,  avg # of iterations =  2.6

[...]

     total energy              =  -20153.50311128 Ry
     estimated scf accuracy    <       0.00000009 Ry

     iteration # 16     ecut=    50.00 Ry     beta= 0.10
     Davidson diagonalization with overlap
     ethr =  6.70E-12,  avg # of iterations =  1.0

[...]

     End of self-consistent calculation

[...]

          k = 0.3750-0.1443 0.0000 ( 23495 PWs)   bands (ev):

[...]

          k =-0.5000-0.8660-0.0000 ( 23552 PWs)   bands (ev):

     3.9909   4.0016   4.0613   4.0671   4.2281   4.2325   4.2616   4.2705
     4.3059   4.3247   4.4082   4.4141   4.4780   4.4810   4.5089   4.5149
     4.5431   4.5442   4.5665   4.5668   4.6186   4.6262   4.6703   4.6727
     4.7515   4.7786   4.8200   4.8204   4.9160   4.9194   5.0137   5.0153
     5.0417   5.0458   5.2113   5.2180   5.4620   5.4690   5.6771   5.7440
     5.9139   5.9403   6.0611   6.1211   6.1549   6.1685   6.1901   6.2402
     6.2953   6.3038   6.3111   6.3160   6.3704   6.3765   6.4227   6.4352
     6.4986   6.6053   6.6748   6.7023   6.8131   6.8327   6.8853   6.9309
     6.9825   7.0315   7.0908   7.0959   7.2026   7.2028   7.3121   7.3271
     7.4029   7.4349   7.5876   7.5887   7.6604   7.7153   7.8308   7.8678
     7.9021   7.9416   8.0886   8.0915   8.1428   8.1429   8.3145   8.3179
     8.3950   8.4028   8.4949   8.5144   8.5290   8.5701   8.6531   8.6822
     8.6886   8.7133   8.7280   8.7299   8.7768   8.7769   8.8015   8.8017
     8.8211   8.8212   8.8478   8.8483   8.8641   8.8653   8.8675   8.8864
     8.9032   8.9099   8.9196   8.9260   8.9632   8.9666   8.9778   8.9941
     8.9944   9.0137   9.0281   9.0436   9.0440   9.0723   9.2302   9.2304
     9.2352   9.2354  10.2615  10.3678  10.5092  10.5243  10.9127  11.0090
    11.1524  11.2267  11.4289  11.4505  11.5771  11.6184  11.6966  11.7320
    11.7760  11.7936  11.8454  11.8634  11.8738  11.8825  12.0310  12.1200
    12.1201  12.1266  12.1271  12.7978  13.0254  13.6636  13.6999  13.7587
    13.8131  14.1379  14.2160  14.3267  14.4018  14.6686  14.7796  14.9670
    15.0188  15.1377  15.5182  15.6887

     the Fermi energy is    10.7165 ev

!    total energy              =  -20153.50311114 Ry

     total all-electron energy =   -988623.501478 Ry
     estimated scf accuracy    <          3.5E-09 Ry
     smearing contrib. (-TS)   =      -0.00026270 Ry
     internal energy E=F+TS    =  -20153.50284844 Ry

     The total energy is F=E-TS. E is the sum of the following terms:
     one-electron contribution =   -8161.09761653 Ry
     hartree contribution      =    4406.10975273 Ry
     xc contribution           =    -833.49426198 Ry
     ewald contribution        =    2440.29456704 Ry
     one-center paw contrib.   =  -18005.31528969 Ry

     convergence has been achieved in  16 iterations

     negative rho (up, down):  2.054E-03 0.000E+00

     Forces acting on atoms (cartesian axes, Ry/au):

     atom    1 type  1   force =    -0.00007485    0.00000924    0.00004258
     atom    2 type  1   force =     0.00006096   -0.00000861   -0.00086910
     atom    3 type  1   force =     0.00012074    0.00000396    0.00032626
     atom    4 type  1   force =     0.00486557    0.00405465   -0.00072201
     atom    5 type  1   force =    -0.00006652    0.00002361    0.00073221
     atom    6 type  1   force =     0.00007284   -0.00003172   -0.00041970
     atom    7 type  1   force =    -0.00006884   -0.00003956   -0.00027493
     atom    8 type  1   force =    -0.00477828   -0.00416918    0.00074233
     atom    9 type  1   force =     0.00006966   -0.00007510    0.00009116
     atom   10 type  1   force =     0.00003529    0.00001309   -0.00045476
     atom   11 type  1   force =    -0.00007265    0.00005307    0.00025506
     atom   12 type  1   force =    -0.00012839    0.00070274    0.00008089
     atom   13 type  1   force =    -0.00004178   -0.00053331    0.00045363
     atom   14 type  1   force =     0.00008723   -0.00003172   -0.00041105
     atom   15 type  1   force =    -0.00007141   -0.00003364   -0.00027479
     atom   16 type  1   force =    -0.00477868   -0.00416946    0.00074461
     atom   17 type  1   force =     0.00007030   -0.00007509    0.00009222
     atom   18 type  1   force =     0.00002206    0.00000922   -0.00044978
     atom   19 type  1   force =    -0.00008072    0.00005370    0.00025652
     atom   20 type  1   force =    -0.00012655    0.00070435    0.00008363
     atom   21 type  1   force =    -0.00004172   -0.00053153    0.00045503
     atom   22 type  1   force =    -0.00007078   -0.00000121    0.00003155
     atom   23 type  1   force =     0.00007062   -0.00000948   -0.00085052
     atom   24 type  1   force =     0.00012354    0.00000162    0.00032573
     atom   25 type  1   force =     0.00486666    0.00405329   -0.00072020
     atom   26 type  1   force =    -0.00006429    0.00002708    0.00073343

     Total force =     0.002528     Total SCF correction =     0.000192
     Energy error            =      1.2E-05 Ry
     Gradient error          =      8.7E-04 Ry/Bohr

     bfgs converged in  32 scf cycles and  31 bfgs steps
     (criteria: energy <  1.0E-04 Ry, force <  1.0E-03 Ry/Bohr)

     End of BFGS Geometry Optimization

     Final energy             =  -20153.5031111392 Ry

     File ./pwscf.bfgs deleted, as requested
Begin final coordinates

ATOMIC_POSITIONS (angstrom)
Au            0.0000000000        0.0000000000       -0.0932631946    0   0   1
Au            5.0991277561        0.8832000000       28.9723603699    0   0   1
Au            5.0991339819        0.8832000000       21.7309470458    0   0   1
Au            5.0991389889        0.0000000000       14.3397308925    0   0   1
Au            5.0991452147        0.0000000000        7.1226007803    0   0   1
Au            1.6997150733        0.0000000000        2.3392933276    0   0   1
Au            1.6996977676        0.8832000000       24.1380952875    0   0   1
Au            1.6997039934        0.8832000000       16.9111701437    0   0   1
Au            1.6997090005        0.0000000000        9.5221752308    0   0   1
Au            3.3994301414        0.0000000000        4.7266270091    0   0   1
Au            3.3994129888        0.8832000000       26.5319162568    0   0   1
Au            3.3994189086        0.8832000000       19.3271867618    0   0   1
Au            3.3994248284        0.0000000000       11.9247191627    0   0   1
Au            4.2492909414        1.4719970299        2.3391870988    0   0   1
Au            4.2492725751        2.3551970299       24.1381099371    0   0   1
Au            4.2492788009        2.3551970299       16.9111462869    0   0   1
Au            4.2492850215        1.4719970299        9.5221723954    0   0   1
Au            0.8498539674        1.4719970299        4.7266499153    0   0   1
Au            0.8498368147        2.3551970299       26.5319329875    0   0   1
Au            0.8498428875        2.3551970299       19.3271819298    0   0   1
Au            0.8498488838        1.4719970299       11.9247281529    0   0   1
Au            2.5495761740        1.4719970299       -0.0931117734    0   0   1
Au            2.5495526478        2.3551970299       28.9722302738    0   0   1
Au            2.5495578078        2.3551970299       21.7309808013    0   0   1
Au            2.5495637276        1.4719970299       14.3397502683    0   0   1
Au            2.5495699534        1.4719970299        7.1225481287    0   0   1
End final coordinates

     Writing all to output data dir ./pwscf.save/

     General routines

     Parallel routines

   This run was terminated on:  16:49:12  15Feb2024

   JOB DONE.