     Program PWSCF v.7.0 starts on 16Feb2024 at  9:39:44

     R & G space division:  proc/nbgrp/npool/nimage =      10

     Reading input from GSF111R_0.5.in
Warning: card &CELL ignored
Warning: card / ignored

     Current dimensions of program PWSCF are:
     Max number of different atomic species (ntypx) = 10
     Max number of k-points (npk) =  40000
     Max angular momentum in pseudopotentials (lmaxx) =  4
     file Au.pbe-n-kjpaw_psl.1.0.0.UPF: wavefunction(s)  6S 5D renormalized
     Found identity + ( -0.5000  0.5000  0.0000) symmetry
     This is a supercell, fractional translations are disabled

     Using Slab Decomposition

     bravais-lattice index     =            0
     lattice parameter (alat)  =       9.6360  a.u.
     unit-cell volume          =    3935.2145 (a.u.)^3
     number of atoms/cell      =           26
     number of atomic types    =            1
     number of electrons       =       286.00
     number of Kohn-Sham states=          172
     kinetic-energy cutoff     =      50.0000  Ry
     charge density cutoff     =     200.0000  Ry
     scf convergence threshold =      1.0E-06
     mixing beta               =       0.0800
     number of iterations used =            8  plain     mixing
     energy convergence thresh.=      1.0E-04
     force convergence thresh. =      1.0E-03
     Exchange-correlation= SLA  PW   PBX  PBC
                           (   1   4   3   4   0   0   0)
     nstep                     =           50

     celldm(1)=   9.635999  celldm(2)=   0.000000  celldm(3)=   0.000000
     celldm(4)=   0.000000  celldm(5)=   0.000000  celldm(6)=   0.000000

     crystal axes: (cart. coord. in units of alat)
               a(1) = (   1.000000   0.000000   0.000000 )
               a(2) = (   0.000000   0.577350   0.000000 )
               a(3) = (  -0.000005   0.000000   7.617966 )

     reciprocal axes: (cart. coord. in units 2 pi/alat)
               b(1) = (  1.000000  0.000000  0.000001 )
               b(2) = (  0.000000  1.732052  0.000000 )
               b(3) = (  0.000000  0.000000  0.131269 )

     PseudoPot. # 1 for Au read from file:
     ./Au.pbe-n-kjpaw_psl.1.0.0.UPF
     MD5 check sum: 4db85c736373c707a97ce4c36c2a9d23
     Pseudo is Projector augmented-wave + core cor, Zval = 11.0
     Generated using &quot;atomic&quot; code by A. Dal Corso  v.6.3
     Shape of augmentation charge: PSQ
     Using radial grid of 1279 points,  6 beta functions with:
                l(1) =   0
                l(2) =   0
                l(3) =   1
                l(4) =   1
                l(5) =   2
                l(6) =   2
     Q(r) pseudized with 0 coefficients

     atomic species   valence    mass     pseudopotential
        Au            11.00   196.96657     Au( 1.00)

     No symmetry found

   Cartesian axes

     site n.     atom                  positions (alat units)
         1           Au  tau(   1) = (   0.0000000   0.0000000   0.0000000  )
         2           Au  tau(   2) = (   0.9999954   0.2886755   5.6568550  )
         3           Au  tau(   3) = (   0.9999966   0.2886755   4.2426411  )
         4           Au  tau(   4) = (   0.9999976   0.0000000   2.8284275  )
         5           Au  tau(   5) = (   0.9999988   0.0000000   1.4142138  )
         6           Au  tau(   6) = (   0.3333329   0.0000000   0.4714045  )
         7           Au  tau(   7) = (   0.3333296   0.2886755   4.7140455  )
         8           Au  tau(   8) = (   0.3333308   0.2886755   3.2998319  )
         9           Au  tau(   9) = (   0.3333318   0.0000000   1.8856185  )
        10           Au  tau(  10) = (   0.6666659   0.0000000   0.9428093  )
        11           Au  tau(  11) = (   0.6666625   0.2886755   5.1854506  )
        12           Au  tau(  12) = (   0.6666637   0.2886755   3.7712367  )
        13           Au  tau(  13) = (   0.6666649   0.0000000   2.3570234  )
        14           Au  tau(  14) = (   0.8333330   0.2886749   0.4714045  )
        15           Au  tau(  15) = (   0.8333294   0.5773504   4.7140455  )
        16           Au  tau(  16) = (   0.8333306   0.5773504   3.2998319  )
        17           Au  tau(  17) = (   0.8333318   0.2886749   1.8856185  )
        18           Au  tau(  18) = (   0.1666658   0.2886749   0.9428093  )
        19           Au  tau(  19) = (   0.1666624   0.5773504   5.1854506  )
        20           Au  tau(  20) = (   0.1666636   0.5773504   3.7712367  )
        21           Au  tau(  21) = (   0.1666648   0.2886749   2.3570234  )
        22           Au  tau(  22) = (   0.5000001   0.2886749   0.0000000  )
        23           Au  tau(  23) = (   0.4999955   0.5773504   5.6568550  )
        24           Au  tau(  24) = (   0.4999965   0.5773504   4.2426411  )
        25           Au  tau(  25) = (   0.4999977   0.2886749   2.8284275  )
        26           Au  tau(  26) = (   0.4999989   0.2886749   1.4142138  )

     number of k points=    50  Gaussian smearing, width (Ry)=  0.0020
                       cart. coord. in units 2pi/alat
        k(    1) = (   0.0000000   0.0000000   0.0000000), wk =   0.0208333
        k(    2) = (   0.0000000   0.1443376   0.0000000), wk =   0.0416667
        k(    3) = (   0.0000000   0.2886753   0.0000000), wk =   0.0416667
        k(    4) = (   0.0000000   0.4330129   0.0000000), wk =   0.0416667
        k(    5) = (   0.0000000   0.5773506   0.0000000), wk =   0.0416667
        k(    6) = (   0.0000000   0.7216882   0.0000000), wk =   0.0416667
        k(    7) = (   0.0000000  -0.8660259   0.0000000), wk =   0.0208333
        k(    8) = (   0.1250000   0.0000000   0.0000001), wk =   0.0416667
        k(    9) = (   0.1250000   0.1443376   0.0000001), wk =   0.0416667
        k(   10) = (   0.1250000   0.2886753   0.0000001), wk =   0.0416667
        k(   11) = (   0.1250000   0.4330129   0.0000001), wk =   0.0416667
        k(   12) = (   0.1250000   0.5773506   0.0000001), wk =   0.0416667
        k(   13) = (   0.1250000   0.7216882   0.0000001), wk =   0.0416667
        k(   14) = (   0.1250000  -0.8660259   0.0000001), wk =   0.0416667
        k(   15) = (   0.1250000  -0.7216882   0.0000001), wk =   0.0416667
        k(   16) = (   0.1250000  -0.5773506   0.0000001), wk =   0.0416667
        k(   17) = (   0.1250000  -0.4330129   0.0000001), wk =   0.0416667
        k(   18) = (   0.1250000  -0.2886753   0.0000001), wk =   0.0416667
        k(   19) = (   0.1250000  -0.1443376   0.0000001), wk =   0.0416667
        k(   20) = (   0.2500000   0.0000000   0.0000002), wk =   0.0416667
        k(   21) = (   0.2500000   0.1443376   0.0000002), wk =   0.0416667
        k(   22) = (   0.2500000   0.2886753   0.0000002), wk =   0.0416667
        k(   23) = (   0.2500000   0.4330129   0.0000002), wk =   0.0416667
        k(   24) = (   0.2500000   0.5773506   0.0000002), wk =   0.0416667
        k(   25) = (   0.2500000   0.7216882   0.0000002), wk =   0.0416667
        k(   26) = (   0.2500000  -0.8660259   0.0000002), wk =   0.0416667
        k(   27) = (   0.2500000  -0.7216882   0.0000002), wk =   0.0416667
        k(   28) = (   0.2500000  -0.5773506   0.0000002), wk =   0.0416667
        k(   29) = (   0.2500000  -0.4330129   0.0000002), wk =   0.0416667
        k(   30) = (   0.2500000  -0.2886753   0.0000002), wk =   0.0416667
        k(   31) = (   0.2500000  -0.1443376   0.0000002), wk =   0.0416667
        k(   32) = (   0.3750000   0.0000000   0.0000002), wk =   0.0416667
        k(   33) = (   0.3750000   0.1443376   0.0000002), wk =   0.0416667
        k(   34) = (   0.3750000   0.2886753   0.0000002), wk =   0.0416667
        k(   35) = (   0.3750000   0.4330129   0.0000002), wk =   0.0416667
        k(   36) = (   0.3750000   0.5773506   0.0000002), wk =   0.0416667
        k(   37) = (   0.3750000   0.7216882   0.0000002), wk =   0.0416667
        k(   38) = (   0.3750000  -0.8660259   0.0000002), wk =   0.0416667
        k(   39) = (   0.3750000  -0.7216882   0.0000002), wk =   0.0416667
        k(   40) = (   0.3750000  -0.5773506   0.0000002), wk =   0.0416667
        k(   41) = (   0.3750000  -0.4330129   0.0000002), wk =   0.0416667
        k(   42) = (   0.3750000  -0.2886753   0.0000002), wk =   0.0416667
        k(   43) = (   0.3750000  -0.1443376   0.0000002), wk =   0.0416667
        k(   44) = (  -0.5000000   0.0000000  -0.0000003), wk =   0.0208333
        k(   45) = (  -0.5000000   0.1443376  -0.0000003), wk =   0.0416667
        k(   46) = (  -0.5000000   0.2886753  -0.0000003), wk =   0.0416667
        k(   47) = (  -0.5000000   0.4330129  -0.0000003), wk =   0.0416667
        k(   48) = (  -0.5000000   0.5773506  -0.0000003), wk =   0.0416667
        k(   49) = (  -0.5000000   0.7216882  -0.0000003), wk =   0.0416667
        k(   50) = (  -0.5000000  -0.8660259  -0.0000003), wk =   0.0208333

     Initial potential from superposition of free atoms

     starting charge     285.9971, renormalised to     286.0000

     negative rho (up, down):  2.503E-03 0.000E+00
     Starting wfcs are  234 randomized atomic wfcs
     Checking if some PAW data can be deallocated...

     Self-consistent Calculation

     iteration #  1     ecut=    50.00 Ry     beta= 0.08
     Davidson diagonalization with overlap
     ethr =  1.00E-02,  avg # of iterations =  5.1

     Threshold (ethr) on eigenvalues was too large:
     Diagonalizing with lowered threshold

     Davidson diagonalization with overlap
     ethr =  3.83E-04,  avg # of iterations =  4.1

     negative rho (up, down):  2.394E-03 0.000E+00

     total energy              =  -20153.67646466 Ry
     estimated scf accuracy    <       1.41527059 Ry

[...]

     iteration #  7     ecut=    50.00 Ry     beta= 0.08
     Davidson diagonalization with overlap
     c_bands:  2 eigenvalues not converged
     c_bands:  3 eigenvalues not converged
     c_bands:  1 eigenvalues not converged
     c_bands:  1 eigenvalues not converged
     c_bands:  2 eigenvalues not converged
     c_bands:  1 eigenvalues not converged
     c_bands:  1 eigenvalues not converged
     c_bands:  1 eigenvalues not converged
     c_bands:  1 eigenvalues not converged
     ethr =  1.95E-05,  avg # of iterations = 15.0

[...]

     End of self-consistent calculation

          k = 0.0000 0.0000 0.0000 ( 23605 PWs)   bands (ev):

     1.5124   1.6493   1.8934   2.1931   2.5594   2.9502   3.3265   3.6281
     3.8211   3.8858   3.9236   4.0064   4.0641   4.0735   4.0756   4.2063
     4.2194   4.2819   4.4018   4.4317   4.4660   4.5525   4.5610   4.6017
     4.6349   4.6812   4.8491   4.9392   5.0002   5.0502   5.2172   5.3009
     5.3976   5.4513   5.7488   5.9848   6.1441   6.1722   6.1879   6.2279
     6.2469   6.2685   6.3094   6.3216   6.3243   6.3251   6.3311   6.3457
     6.3520   6.3524   6.3680   6.3895   6.4048   6.4121   6.4167   6.4254
     6.4412   6.4725   6.4771   6.4784   6.5114   6.5233   6.5368   6.5524
     6.5595   6.5611   6.5656   6.5902   6.5952   6.6209   6.6307   6.6988
     6.7377   6.7668   6.8711   6.8713   6.8754   6.8756   6.9127   6.9915
     7.0541   7.1404   7.1667   7.2610   7.4922   7.5484   7.6596   7.6626
     7.6686   7.6731   7.6834   7.6916   7.6980   7.7119   7.7333   7.7524
[...]
     atom    5 type  1   force =     0.00004280   -0.00000549    0.00058962
     atom    6 type  1   force =     0.00001726    0.00000179    0.00529961
     atom    7 type  1   force =    -0.00012085   -0.00000417    0.00172780
     atom    8 type  1   force =    -0.02336962   -0.00000560    0.05564440
     atom    9 type  1   force =    -0.00001339   -0.00000215   -0.00096905
     atom   10 type  1   force =     0.00007343    0.00000166   -0.00164685
     atom   11 type  1   force =    -0.00003547    0.00000843   -0.00510161
     atom   12 type  1   force =    -0.00026685   -0.00000316    0.00244186
     atom   13 type  1   force =     0.00013048    0.00000396   -0.00226505
     atom   14 type  1   force =     0.00000792   -0.00000403    0.00530019
     atom   15 type  1   force =    -0.00012409   -0.00000222    0.00173969
     atom   16 type  1   force =    -0.02337100   -0.00000149    0.05564853
     atom   17 type  1   force =    -0.00000899    0.00000242   -0.00096058
     atom   18 type  1   force =     0.00007405    0.00000693   -0.00164539
     atom   19 type  1   force =    -0.00003350    0.00000160   -0.00508957
     atom   20 type  1   force =    -0.00026731   -0.00000331    0.00245472
     atom   21 type  1   force =     0.00012877   -0.00000687   -0.00226580
     atom   22 type  1   force =    -0.00002859    0.00000559   -0.00331531
     atom   23 type  1   force =    -0.00001106    0.00000456    0.00327335
     atom   24 type  1   force =     0.00008493   -0.00000311    0.00043482
     atom   25 type  1   force =     0.02353593    0.00000108   -0.05612884
     atom   26 type  1   force =     0.00002453    0.00000035    0.00057650

     Total force =     0.112609     Total SCF correction =     0.003281

     BFGS Geometry Optimization
     Energy error            =      0.0E+00 Ry
     Gradient error          =      5.6E-02 Ry/Bohr

     number of scf cycles    =   1
     number of bfgs steps    =   0

     energy             new  =  -20153.4774544591 Ry

     new trust radius        =       0.0561288389 bohr
     new conv_thr            =       0.0000010000 Ry

ATOMIC_POSITIONS (angstrom)
Au           -0.0000000000        0.0000000000       -0.0017605443    0   0   1
Au            5.0991277561        1.4720000000       28.8468818984    0   0   1
Au            5.0991339819        1.4720000000       21.6341037980    0   0   1
Au            5.0991389889        0.0000000000       14.3928831293    0   0   1
Au            5.0991452147        0.0000000000        7.2116017174    0   0   1
Au            1.6997150733        0.0000000000        2.4065674509    0   0   1
Au            1.6996977676        1.4720000000       24.0385447974    0   0   1
Au            1.6997039934        1.4720000000       16.8557874725    0   0   1
Au            1.6997090005        0.0000000000        9.6145409856    0   0   1
Au            3.3994301414        0.0000000000        4.8066553852    0   0   1
Au            3.3994129888        1.4720000000       26.4386967341    0   0   1
Au            3.3994189086        1.4720000000       19.2313979793    0   0   1
Au            3.3994248284        0.0000000000       12.0176201301    0   0   1
Au            4.2492909414        1.4719970299        2.4065677577    0   0   1
Au            4.2492725751        2.9439970299       24.0385510900    0   0   1
Au            4.2492788009        2.9439970299       16.8557896573    0   0   1
Au            4.2492850215        1.4719970299        9.6145454640    0   0   1
Au            0.8498539674        1.4719970299        4.8066561590    0   0   1
Au            0.8498368147        2.9439970299       26.4387031068    0   0   1
Au            0.8498428875        2.9439970299       19.2314047818    0   0   1
Au            0.8498488838        1.4719970299       12.0176197342    0   0   1
Au            2.5495761740        1.4719970299       -0.0017543860    0   0   1
Au            2.5495526478        2.9439970299       28.8468908826    0   0   1
Au            2.5495578078        2.9439970299       21.6340982703    0   0   1
Au            2.5495637276        1.4719970299       14.3928772485    0   0   1
Au            2.5495699534        1.4719970299        7.2115947769    0   0   1

     Writing config-only to output data dir ./pwscf.save/
     NEW-OLD atomic charge density approx. for the potential

[...]

     Total force =     0.066582     Total SCF correction =     0.003753
     Energy error            =      2.7E-02 Ry
     Gradient error          =      3.2E-02 Ry/Bohr

[...]

     energy             old  =  -20153.5141646006 Ry
     energy             new  =  -20153.4873009794 Ry

     CASE: energy            _new > energy            _old

[...]

     iteration # 10     ecut=    50.00 Ry     beta= 0.08
     Davidson diagonalization with overlap
     c_bands:  1 eigenvalues not converged
     c_bands:  1 eigenvalues not converged
     c_bands:  1 eigenvalues not converged
     c_bands:  1 eigenvalues not converged
     c_bands:  1 eigenvalues not converged
     ethr =  1.35E-05,  avg # of iterations = 15.2

[...]

     Total force =     0.012604     Total SCF correction =     0.002188
     SCF correction compared to forces is large: reduce conv_thr to get better values

     BFGS Geometry Optimization
     Energy error            =      0.0E+00 Ry
     Gradient error          =      5.2E-03 Ry/Bohr

[...]

     energy             new  =  -20153.5140741454 Ry

[...]

     Total force =     0.013081     Total SCF correction =     0.002481
     SCF correction compared to forces is large: reduce conv_thr to get better values
     Energy error            =      1.4E-04 Ry
     Gradient error          =      5.6E-03 Ry/Bohr

[...]

     CASE: energy            _new < energy            _old

     WARNING: bfgs curvature condition failed, Theta= 0.773
     new trust radius        =       0.0057599547 bohr
     new conv_thr            =       0.0000000143 Ry

[...]

     WARNING: bfgs curvature condition failed, Theta= 0.844
     new trust radius        =       0.0012867857 bohr
     new conv_thr            =       0.0000000100 Ry

[...]

     Total force =     0.002775     Total SCF correction =     0.000292
     SCF correction compared to forces is large: reduce conv_thr to get better values
     Energy error            =      8.3E-06 Ry
     Gradient error          =      1.2E-03 Ry/Bohr

     number of scf cycles    =   7
     number of bfgs steps    =   6

     energy             old  =  -20153.5144847633 Ry
     energy             new  =  -20153.5144930435 Ry

     CASE: energy            _new < energy            _old

     new trust radius        =       0.0019301785 bohr
     new conv_thr            =       0.0000000100 Ry

ATOMIC_POSITIONS (angstrom)
Au            0.0000000000        0.0000000000       -0.0106578393    0   0   1
Au            5.0991277561        0.1568322104       28.8559433219    0   0   1
Au            5.0991339819        0.1568322104       21.6350277226    0   0   1
Au            5.0991389889        0.0000000000       14.4192058311    0   0   1
Au            5.0991452147        0.0000000000        7.2100678843    0   0   1
Au            1.6997150733        0.0000000000        2.4187538820    0   0   1
Au            1.6996977676        0.1568322104       24.0393418843    0   0   1
Au            1.6997039934        0.1568322104       16.8304314902    0   0   1
Au            1.6997090005        0.0000000000        9.6132798208    0   0   1
Au            3.3994301414        0.0000000000        4.8058545939    0   0   1
Au            3.3994129888        0.1568322104       26.4265855714    0   0   1
Au            3.3994189086        0.1568322104       19.2327090245    0   0   1
Au            3.3994248284        0.0000000000       12.0169553900    0   0   1
Au            4.2492909414        1.4719970299        2.4187711054    0   0   1
Au            4.2492725751        1.6288292403       24.0393645118    0   0   1
Au            4.2492788009        1.6288292403       16.8304310113    0   0   1
Au            4.2492850215        1.4719970299        9.6132692583    0   0   1
Au            0.8498539674        1.4719970299        4.8058295325    0   0   1
Au            0.8498368147        1.6288292403       26.4265916525    0   0   1
Au            0.8498428875        1.6288292403       19.2327328793    0   0   1
Au            0.8498488838        1.4719970299       12.0169786083    0   0   1
Au            2.5495761740        1.4719970299       -0.0106194972    0   0   1
Au            2.5495526478        1.6288292403       28.8559384168    0   0   1
Au            2.5495578078        1.6288292403       21.6350413594    0   0   1
Au            2.5495637276        1.4719970299       14.4191934662    0   0   1
Au            2.5495699534        1.4719970299        7.2100445943    0   0   1

     Writing config-only to output data dir ./pwscf.save/
     NEW-OLD atomic charge density approx. for the potential

[...]

     Self-consistent Calculation

[...]

     Threshold (ethr) on eigenvalues was too large:
     Diagonalizing with lowered threshold

     Davidson diagonalization with overlap
     ethr =  3.24E-09,  avg # of iterations =  4.0

[...]

     total energy              =  -20153.51450256 Ry
     estimated scf accuracy    <       0.00000002 Ry

     iteration # 10     ecut=    50.00 Ry     beta= 0.08
     Davidson diagonalization with overlap
     ethr =  5.84E-12,  avg # of iterations =  4.0

[...]

     End of self-consistent calculation

[...]

          k = 0.3750-0.1443 0.0000 ( 23495 PWs)   bands (ev):

[...]

          k =-0.5000-0.8660-0.0000 ( 23552 PWs)   bands (ev):

     3.9467   3.9671   4.0589   4.0591   4.1996   4.2105   4.2213   4.2383
     4.2809   4.2817   4.3976   4.4018   4.4323   4.4329   4.4863   4.4903
     4.5320   4.5349   4.5596   4.5602   4.6071   4.6135   4.6550   4.6616
     4.6901   4.6945   4.7109   4.7118   4.8818   4.8838   5.0117   5.0126
     5.0342   5.0343   5.1712   5.1713   5.4571   5.4575   5.7390   5.7460
     5.9474   5.9487   6.0409   6.0768   6.1612   6.1629   6.2238   6.2497
     6.3143   6.3185   6.3213   6.3225   6.3504   6.3519   6.4182   6.4190
     6.5612   6.5814   6.7199   6.7334   6.7655   6.7656   6.7934   6.7991
     7.0062   7.0162   7.0500   7.0644   7.1378   7.1418   7.2806   7.2841
     7.4774   7.4831   7.5657   7.5675   7.5754   7.5853   7.8489   7.8517
     7.9354   7.9615   8.0443   8.0510   8.1180   8.1236   8.3741   8.3759
     8.3893   8.3893   8.4881   8.4933   8.5729   8.5794   8.6905   8.6968
     8.6970   8.7143   8.7397   8.7409   8.7838   8.7982   8.8008   8.8013
     8.8115   8.8255   8.8383   8.8395   8.8408   8.8426   8.8590   8.8619
     8.8831   8.8848   8.9053   8.9120   8.9437   8.9440   8.9759   8.9832
     9.0214   9.0233   9.0251   9.0290   9.0642   9.0664   9.2360   9.2362
     9.2365   9.2366  10.1836  10.2278  10.5551  10.5604  10.9193  10.9500
    11.2312  11.2502  11.4688  11.4733  11.6115  11.6316  11.7105  11.7359
    11.7846  11.8006  11.8226  11.8654  11.8814  11.8871  11.8951  12.0354
    12.1305  12.1306  12.1309  12.1316  13.4916  13.6024  13.7308  13.7426
    13.9565  14.0438  14.2706  14.2925  14.5164  14.5778  14.8738  14.9166
    15.3193  15.3987  15.8546  15.9247

     the Fermi energy is    10.7333 ev

!    total energy              =  -20153.51450247 Ry

     total all-electron energy =   -988623.512870 Ry
     estimated scf accuracy    <          3.3E-09 Ry
     smearing contrib. (-TS)   =      -0.00037151 Ry
     internal energy E=F+TS    =  -20153.51413096 Ry

     The total energy is F=E-TS. E is the sum of the following terms:
     one-electron contribution =   -8801.56550312 Ry
     hartree contribution      =    4726.30001613 Ry
     xc contribution           =    -833.58641983 Ry
     ewald contribution        =    2760.66891208 Ry
     one-center paw contrib.   =  -18005.33113622 Ry

     convergence has been achieved in  10 iterations

     negative rho (up, down):  2.448E-03 0.000E+00

     Forces acting on atoms (cartesian axes, Ry/au):

     atom    1 type  1   force =    -0.00000933    0.00001795   -0.00022246
     atom    2 type  1   force =     0.00000484   -0.00005181    0.00022306
     atom    3 type  1   force =     0.00004634   -0.00000793    0.00026444
     atom    4 type  1   force =     0.00053266    0.00284289    0.00001102
     atom    5 type  1   force =    -0.00003949   -0.00000264   -0.00013371
     atom    6 type  1   force =     0.00004708   -0.00001594   -0.00016970
     atom    7 type  1   force =    -0.00009866   -0.00002895   -0.00092006
     atom    8 type  1   force =    -0.00047181   -0.00287589   -0.00000879
     atom    9 type  1   force =     0.00001341   -0.00001060   -0.00024955
     atom   10 type  1   force =     0.00010162   -0.00000171    0.00092028
     atom   11 type  1   force =    -0.00004783   -0.00001140    0.00014691
     atom   12 type  1   force =    -0.00002161    0.00028010    0.00043983
     atom   13 type  1   force =    -0.00005770   -0.00028981   -0.00030016
     atom   14 type  1   force =     0.00004854   -0.00001474   -0.00017093
     atom   15 type  1   force =    -0.00009962    0.00002150   -0.00091794
     atom   16 type  1   force =    -0.00047142   -0.00282302   -0.00000747
     atom   17 type  1   force =     0.00001239   -0.00001052   -0.00024982
     atom   18 type  1   force =     0.00009591   -0.00000209    0.00091763
     atom   19 type  1   force =    -0.00004954    0.00004635    0.00014212
     atom   20 type  1   force =    -0.00002073    0.00033280    0.00044061
     atom   21 type  1   force =    -0.00005695   -0.00028905   -0.00029830
     atom   22 type  1   force =    -0.00000093    0.00000875   -0.00022084
     atom   23 type  1   force =     0.00000528   -0.00000115    0.00022356
     atom   24 type  1   force =     0.00004878    0.00004442    0.00026414
     atom   25 type  1   force =     0.00053470    0.00284437    0.00001049
     atom   26 type  1   force =    -0.00004591   -0.00000190   -0.00013436

     Total force =     0.002131     Total SCF correction =     0.000202
     Energy error            =      9.4E-06 Ry
     Gradient error          =      9.2E-04 Ry/Bohr

     bfgs converged in   8 scf cycles and   7 bfgs steps
     (criteria: energy <  1.0E-04 Ry, force <  1.0E-03 Ry/Bohr)

     End of BFGS Geometry Optimization

     Final energy             =  -20153.5145024706 Ry

     File ./pwscf.bfgs deleted, as requested
Begin final coordinates

ATOMIC_POSITIONS (angstrom)
Au            0.0000000000        0.0000000000       -0.0106578393    0   0   1
Au            5.0991277561        0.1568322104       28.8559433219    0   0   1
Au            5.0991339819        0.1568322104       21.6350277226    0   0   1
Au            5.0991389889        0.0000000000       14.4192058311    0   0   1
Au            5.0991452147        0.0000000000        7.2100678843    0   0   1
Au            1.6997150733        0.0000000000        2.4187538820    0   0   1
Au            1.6996977676        0.1568322104       24.0393418843    0   0   1
Au            1.6997039934        0.1568322104       16.8304314902    0   0   1
Au            1.6997090005        0.0000000000        9.6132798208    0   0   1
Au            3.3994301414        0.0000000000        4.8058545939    0   0   1
Au            3.3994129888        0.1568322104       26.4265855714    0   0   1
Au            3.3994189086        0.1568322104       19.2327090245    0   0   1
Au            3.3994248284        0.0000000000       12.0169553900    0   0   1
Au            4.2492909414        1.4719970299        2.4187711054    0   0   1
Au            4.2492725751        1.6288292403       24.0393645118    0   0   1
Au            4.2492788009        1.6288292403       16.8304310113    0   0   1
Au            4.2492850215        1.4719970299        9.6132692583    0   0   1
Au            0.8498539674        1.4719970299        4.8058295325    0   0   1
Au            0.8498368147        1.6288292403       26.4265916525    0   0   1
Au            0.8498428875        1.6288292403       19.2327328793    0   0   1
Au            0.8498488838        1.4719970299       12.0169786083    0   0   1
Au            2.5495761740        1.4719970299       -0.0106194972    0   0   1
Au            2.5495526478        1.6288292403       28.8559384168    0   0   1
Au            2.5495578078        1.6288292403       21.6350413594    0   0   1
Au            2.5495637276        1.4719970299       14.4191934662    0   0   1
Au            2.5495699534        1.4719970299        7.2100445943    0   0   1
End final coordinates

     Writing all to output data dir ./pwscf.save/

     General routines

     Parallel routines

   This run was terminated on:  12:52:14  16Feb2024

   JOB DONE.