     Program PWSCF v.7.0 starts on 16Feb2024 at  9:39:46

     R & G space division:  proc/nbgrp/npool/nimage =      10

     Reading input from GSF111R_0.05.in
Warning: card &CELL ignored
Warning: card / ignored

     Current dimensions of program PWSCF are:
     Max number of different atomic species (ntypx) = 10
     Max number of k-points (npk) =  40000
     Max angular momentum in pseudopotentials (lmaxx) =  4
     file Au.pbe-n-kjpaw_psl.1.0.0.UPF: wavefunction(s)  6S 5D renormalized
     Found identity + ( -0.5000  0.5000  0.0000) symmetry
     This is a supercell, fractional translations are disabled

     Using Slab Decomposition

     bravais-lattice index     =            0
     lattice parameter (alat)  =       9.6360  a.u.
     unit-cell volume          =    3935.2145 (a.u.)^3
     number of atoms/cell      =           26
     number of atomic types    =            1
     number of electrons       =       286.00
     number of Kohn-Sham states=          172
     kinetic-energy cutoff     =      50.0000  Ry
     charge density cutoff     =     200.0000  Ry
     scf convergence threshold =      1.0E-06
     mixing beta               =       0.0800
     number of iterations used =            8  plain     mixing
     energy convergence thresh.=      1.0E-04
     force convergence thresh. =      1.0E-03
     Exchange-correlation= SLA  PW   PBX  PBC
                           (   1   4   3   4   0   0   0)
     nstep                     =           50

     celldm(1)=   9.635999  celldm(2)=   0.000000  celldm(3)=   0.000000
     celldm(4)=   0.000000  celldm(5)=   0.000000  celldm(6)=   0.000000

     crystal axes: (cart. coord. in units of alat)
               a(1) = (   1.000000   0.000000   0.000000 )
               a(2) = (   0.000000   0.577350   0.000000 )
               a(3) = (  -0.000005   0.000000   7.617966 )

     reciprocal axes: (cart. coord. in units 2 pi/alat)
               b(1) = (  1.000000  0.000000  0.000001 )
               b(2) = (  0.000000  1.732052  0.000000 )
               b(3) = (  0.000000  0.000000  0.131269 )

     PseudoPot. # 1 for Au read from file:
     ./Au.pbe-n-kjpaw_psl.1.0.0.UPF
     MD5 check sum: 4db85c736373c707a97ce4c36c2a9d23
     Pseudo is Projector augmented-wave + core cor, Zval = 11.0
     Generated using &quot;atomic&quot; code by A. Dal Corso  v.6.3
     Shape of augmentation charge: PSQ
     Using radial grid of 1279 points,  6 beta functions with:
                l(1) =   0
                l(2) =   0
                l(3) =   1
                l(4) =   1
                l(5) =   2
                l(6) =   2
     Q(r) pseudized with 0 coefficients

     atomic species   valence    mass     pseudopotential
        Au            11.00   196.96657     Au( 1.00)

     No symmetry found

   Cartesian axes

     site n.     atom                  positions (alat units)
         1           Au  tau(   1) = (   0.0000000   0.0000000   0.0000000  )
         2           Au  tau(   2) = (   0.9999954   0.0288675   5.6568550  )
         3           Au  tau(   3) = (   0.9999966   0.0288675   4.2426411  )
         4           Au  tau(   4) = (   0.9999976   0.0000000   2.8284275  )
         5           Au  tau(   5) = (   0.9999988   0.0000000   1.4142138  )
         6           Au  tau(   6) = (   0.3333329   0.0000000   0.4714045  )
         7           Au  tau(   7) = (   0.3333296   0.0288675   4.7140455  )
         8           Au  tau(   8) = (   0.3333308   0.0288675   3.2998319  )
         9           Au  tau(   9) = (   0.3333318   0.0000000   1.8856185  )
        10           Au  tau(  10) = (   0.6666659   0.0000000   0.9428093  )
        11           Au  tau(  11) = (   0.6666625   0.0288675   5.1854506  )
        12           Au  tau(  12) = (   0.6666637   0.0288675   3.7712367  )
        13           Au  tau(  13) = (   0.6666649   0.0000000   2.3570234  )
        14           Au  tau(  14) = (   0.8333330   0.2886749   0.4714045  )
        15           Au  tau(  15) = (   0.8333294   0.3175425   4.7140455  )
        16           Au  tau(  16) = (   0.8333306   0.3175425   3.2998319  )
        17           Au  tau(  17) = (   0.8333318   0.2886749   1.8856185  )
        18           Au  tau(  18) = (   0.1666658   0.2886749   0.9428093  )
        19           Au  tau(  19) = (   0.1666624   0.3175425   5.1854506  )
        20           Au  tau(  20) = (   0.1666636   0.3175425   3.7712367  )
        21           Au  tau(  21) = (   0.1666648   0.2886749   2.3570234  )
        22           Au  tau(  22) = (   0.5000001   0.2886749   0.0000000  )
        23           Au  tau(  23) = (   0.4999955   0.3175425   5.6568550  )
        24           Au  tau(  24) = (   0.4999965   0.3175425   4.2426411  )
        25           Au  tau(  25) = (   0.4999977   0.2886749   2.8284275  )
        26           Au  tau(  26) = (   0.4999989   0.2886749   1.4142138  )

     number of k points=    50  Gaussian smearing, width (Ry)=  0.0020
                       cart. coord. in units 2pi/alat
        k(    1) = (   0.0000000   0.0000000   0.0000000), wk =   0.0208333
        k(    2) = (   0.0000000   0.1443376   0.0000000), wk =   0.0416667
        k(    3) = (   0.0000000   0.2886753   0.0000000), wk =   0.0416667
        k(    4) = (   0.0000000   0.4330129   0.0000000), wk =   0.0416667
        k(    5) = (   0.0000000   0.5773506   0.0000000), wk =   0.0416667
        k(    6) = (   0.0000000   0.7216882   0.0000000), wk =   0.0416667
        k(    7) = (   0.0000000  -0.8660259   0.0000000), wk =   0.0208333
        k(    8) = (   0.1250000   0.0000000   0.0000001), wk =   0.0416667
        k(    9) = (   0.1250000   0.1443376   0.0000001), wk =   0.0416667
        k(   10) = (   0.1250000   0.2886753   0.0000001), wk =   0.0416667
        k(   11) = (   0.1250000   0.4330129   0.0000001), wk =   0.0416667
        k(   12) = (   0.1250000   0.5773506   0.0000001), wk =   0.0416667
        k(   13) = (   0.1250000   0.7216882   0.0000001), wk =   0.0416667
        k(   14) = (   0.1250000  -0.8660259   0.0000001), wk =   0.0416667
        k(   15) = (   0.1250000  -0.7216882   0.0000001), wk =   0.0416667
        k(   16) = (   0.1250000  -0.5773506   0.0000001), wk =   0.0416667
        k(   17) = (   0.1250000  -0.4330129   0.0000001), wk =   0.0416667
        k(   18) = (   0.1250000  -0.2886753   0.0000001), wk =   0.0416667
        k(   19) = (   0.1250000  -0.1443376   0.0000001), wk =   0.0416667
        k(   20) = (   0.2500000   0.0000000   0.0000002), wk =   0.0416667
        k(   21) = (   0.2500000   0.1443376   0.0000002), wk =   0.0416667
        k(   22) = (   0.2500000   0.2886753   0.0000002), wk =   0.0416667
        k(   23) = (   0.2500000   0.4330129   0.0000002), wk =   0.0416667
        k(   24) = (   0.2500000   0.5773506   0.0000002), wk =   0.0416667
        k(   25) = (   0.2500000   0.7216882   0.0000002), wk =   0.0416667
        k(   26) = (   0.2500000  -0.8660259   0.0000002), wk =   0.0416667
        k(   27) = (   0.2500000  -0.7216882   0.0000002), wk =   0.0416667
        k(   28) = (   0.2500000  -0.5773506   0.0000002), wk =   0.0416667
        k(   29) = (   0.2500000  -0.4330129   0.0000002), wk =   0.0416667
        k(   30) = (   0.2500000  -0.2886753   0.0000002), wk =   0.0416667
        k(   31) = (   0.2500000  -0.1443376   0.0000002), wk =   0.0416667
        k(   32) = (   0.3750000   0.0000000   0.0000002), wk =   0.0416667
        k(   33) = (   0.3750000   0.1443376   0.0000002), wk =   0.0416667
        k(   34) = (   0.3750000   0.2886753   0.0000002), wk =   0.0416667
        k(   35) = (   0.3750000   0.4330129   0.0000002), wk =   0.0416667
        k(   36) = (   0.3750000   0.5773506   0.0000002), wk =   0.0416667
        k(   37) = (   0.3750000   0.7216882   0.0000002), wk =   0.0416667
        k(   38) = (   0.3750000  -0.8660259   0.0000002), wk =   0.0416667
        k(   39) = (   0.3750000  -0.7216882   0.0000002), wk =   0.0416667
        k(   40) = (   0.3750000  -0.5773506   0.0000002), wk =   0.0416667
        k(   41) = (   0.3750000  -0.4330129   0.0000002), wk =   0.0416667
        k(   42) = (   0.3750000  -0.2886753   0.0000002), wk =   0.0416667
        k(   43) = (   0.3750000  -0.1443376   0.0000002), wk =   0.0416667
        k(   44) = (  -0.5000000   0.0000000  -0.0000003), wk =   0.0208333
        k(   45) = (  -0.5000000   0.1443376  -0.0000003), wk =   0.0416667
        k(   46) = (  -0.5000000   0.2886753  -0.0000003), wk =   0.0416667
        k(   47) = (  -0.5000000   0.4330129  -0.0000003), wk =   0.0416667
        k(   48) = (  -0.5000000   0.5773506  -0.0000003), wk =   0.0416667
        k(   49) = (  -0.5000000   0.7216882  -0.0000003), wk =   0.0416667
        k(   50) = (  -0.5000000  -0.8660259  -0.0000003), wk =   0.0208333

     Initial potential from superposition of free atoms

     starting charge     285.9971, renormalised to     286.0000

     negative rho (up, down):  2.612E-03 0.000E+00
     Starting wfcs are  234 randomized atomic wfcs
     Checking if some PAW data can be deallocated...

     Self-consistent Calculation

     iteration #  1     ecut=    50.00 Ry     beta= 0.08
     Davidson diagonalization with overlap
     ethr =  1.00E-02,  avg # of iterations =  4.9

     Threshold (ethr) on eigenvalues was too large:
     Diagonalizing with lowered threshold

     Davidson diagonalization with overlap
     ethr =  3.96E-04,  avg # of iterations =  4.5

     negative rho (up, down):  2.500E-03 0.000E+00

     total energy              =  -20153.70904856 Ry
     estimated scf accuracy    <       1.44962143 Ry

[...]

     iteration #  7     ecut=    50.00 Ry     beta= 0.08
     Davidson diagonalization with overlap
     c_bands:  1 eigenvalues not converged
     c_bands:  3 eigenvalues not converged
     c_bands:  1 eigenvalues not converged
     c_bands:  1 eigenvalues not converged
     c_bands:  1 eigenvalues not converged
     c_bands:  1 eigenvalues not converged
     c_bands:  1 eigenvalues not converged
     c_bands:  2 eigenvalues not converged
     c_bands:  1 eigenvalues not converged
     c_bands:  1 eigenvalues not converged
     c_bands:  2 eigenvalues not converged
     c_bands:  1 eigenvalues not converged
     c_bands:  2 eigenvalues not converged
     c_bands:  1 eigenvalues not converged
     ethr =  1.48E-05,  avg # of iterations = 16.2

[...]

     End of self-consistent calculation

          k = 0.0000 0.0000 0.0000 ( 23605 PWs)   bands (ev):

     1.5100   1.6551   1.8875   2.1943   2.5531   2.9452   3.3222   3.6268
     3.8137   3.8988   3.9234   3.9627   4.0715   4.0762   4.0764   4.2111
     4.2375   4.2922   4.4108   4.4349   4.4980   4.5413   4.5727   4.6067
     4.6640   4.7054   4.7078   4.8831   4.9821   5.0032   5.1595   5.4420
     5.7323   5.9436   6.0465   6.1386   6.1637   6.1659   6.2215   6.2492
     6.2531   6.2956   6.3166   6.3230   6.3234   6.3244   6.3544   6.3566
     6.3590   6.3627   6.3735   6.3867   6.4100   6.4114   6.4159   6.4183
     6.4329   6.4749   6.4796   6.4858   6.4885   6.5042   6.5383   6.5411
     6.5595   6.5605   6.5864   6.5871   6.5892   6.6009   6.6114   6.7339
     6.7432   6.7554   6.8004   6.8715   6.8719   6.8722   6.8725   7.0065
     7.0655   7.1379   7.1681   7.2678   7.4876   7.5563   7.5765   7.5934
     7.6624   7.6811   7.6907   7.6959   7.7109   7.7177   7.7368   7.7706
     7.7888   7.7975   7.8488   7.8654   7.8723   7.9545   7.9988   8.0050
     8.0457   8.1247   8.1692   8.1745   8.3317   8.3601   8.3826   8.3915
     8.4875   8.5203   8.5234   8.5648   8.5794   8.6426   8.6882   8.7008
     8.7058   8.7433   8.7631   8.7637   8.7850   8.7993   8.8073   8.8102
     8.8230   8.8401   8.8465   8.8663   8.8873   8.9106   8.9458   8.9788
     9.0237   9.0302   9.0739   9.2213   9.2216   9.4050  10.2062  10.5077
    10.5635  10.6297  10.9345  11.2445  11.4725  11.6278  11.7314  11.8021
    11.8544  11.8918  11.9193  12.1243  12.1245  13.5619  13.7377  13.9353
    14.0046  14.2916  14.5551  14.8670  14.8900  15.0460  15.3559  15.9021
    16.1937  16.3734  16.4734  16.5724

[...]

          k =-0.5000 0.0000-0.0000 ( 23442 PWs)   bands (ev):

[...]

     the Fermi energy is    10.7395 ev

!    total energy              =  -20153.51416460 Ry

     total all-electron energy =   -988623.512532 Ry
     estimated scf accuracy    <       0.00000050 Ry
     smearing contrib. (-TS)   =      -0.00036668 Ry
     internal energy E=F+TS    =  -20153.51379792 Ry

     The total energy is F=E-TS. E is the sum of the following terms:
     one-electron contribution =   -8803.90216387 Ry
     hartree contribution      =    4727.47691473 Ry
     xc contribution           =    -833.59929467 Ry
     ewald contribution        =    2761.84423321 Ry
     one-center paw contrib.   =  -18005.33348731 Ry

     convergence has been achieved in  23 iterations

[...]

     Forces acting on atoms (cartesian axes, Ry/au):

     atom    1 type  1   force =    -0.00001217    0.00000048   -0.00292671
     atom    2 type  1   force =    -0.00000151   -0.00004013    0.00297246
     atom    3 type  1   force =     0.00004420    0.00000028   -0.00026344
     atom    4 type  1   force =     0.00048709    0.00278448   -0.00114213
     atom    5 type  1   force =    -0.00003252   -0.00001584    0.00029036
     atom    6 type  1   force =     0.00004578   -0.00001367    0.00527685
     atom    7 type  1   force =    -0.00009240   -0.00002927    0.00157613
     atom    8 type  1   force =    -0.00043407   -0.00282488    0.00098269
     atom    9 type  1   force =     0.00002096   -0.00001296   -0.00003340
     atom   10 type  1   force =     0.00010013   -0.00000663   -0.00150694
     atom   11 type  1   force =    -0.00004321   -0.00000085   -0.00515067
     atom   12 type  1   force =    -0.00001904    0.00025977    0.00003590
     atom   13 type  1   force =    -0.00005916   -0.00027774   -0.00011370
     atom   14 type  1   force =     0.00003922   -0.00001675    0.00527922
     atom   15 type  1   force =    -0.00009000    0.00002914    0.00157806
     atom   16 type  1   force =    -0.00042954   -0.00276134    0.00098028
     atom   17 type  1   force =     0.00001598   -0.00000692   -0.00003334
     atom   18 type  1   force =     0.00009243   -0.00000564   -0.00151042
     atom   19 type  1   force =    -0.00004985    0.00005350   -0.00514264
     atom   20 type  1   force =    -0.00002719    0.00031893    0.00004652
     atom   21 type  1   force =    -0.00005310   -0.00028255   -0.00011410
     atom   22 type  1   force =    -0.00000374   -0.00000190   -0.00291761
     atom   23 type  1   force =     0.00001058    0.00001809    0.00296389
     atom   24 type  1   force =     0.00004610    0.00005804   -0.00026253
     atom   25 type  1   force =     0.00049360    0.00279003   -0.00115026
     atom   26 type  1   force =    -0.00004858   -0.00001567    0.00028555

     Total force =     0.012562     Total SCF correction =     0.002613
     SCF correction compared to forces is large: reduce conv_thr to get better values
     Energy error            =      5.5E-03 Ry
     Gradient error          =      5.3E-03 Ry/Bohr

     number of scf cycles    =   4
     number of bfgs steps    =   3

     energy             old  =  -20153.5086459595 Ry
     energy             new  =  -20153.5141646006 Ry

     CASE: energy            _new < energy            _old

     WARNING: info=  5 for Hessian

     WARNING: bfgs curvature condition failed, Theta= 0.800
     new trust radius        =       0.8000000000 bohr
     new conv_thr            =       0.0000000528 Ry

ATOMIC_POSITIONS (angstrom)
Au           -0.0000000000        0.0000000000       -0.0000000000    0   0   1
Au            5.0991277561       -0.2761417687       28.8451587017    0   0   1
Au            5.0991339819       -0.2761417687       21.6338681730    0   0   1
Au            5.0991389889        0.0000000000       14.4225793509    0   0   1
Au            5.0991452147        0.0000000000        7.2112897049    0   0   1
Au            1.6997150733        0.0000000000        2.4037630192    0   0   1
Au            1.6996977676       -0.2761417687       24.0376304861    0   0   1
Au            1.6997039934       -0.2761417687       16.8263417228    0   0   1
Au            1.6997090005        0.0000000000        9.6150537833    0   0   1
Au            3.3994301414        0.0000000000        4.8075268622    0   0   1
Au            3.3994129888       -0.2761417687       26.4413963887    0   0   1
Au            3.3994189086       -0.2761417687       19.2301058012    0   0   1
Au            3.3994248284        0.0000000000       12.0188187443    0   0   1
Au            4.2492909414        1.4719970299        2.4037630192    0   0   1
Au            4.2492725751        1.1958552612       24.0376304861    0   0   1
Au            4.2492788009        1.1958552612       16.8263417228    0   0   1
Au            4.2492850215        1.4719970299        9.6150537833    0   0   1
Au            0.8498539674        1.4719970299        4.8075268622    0   0   1
Au            0.8498368147        1.1958552612       26.4413963887    0   0   1
Au            0.8498428875        1.1958552612       19.2301058012    0   0   1
Au            0.8498488838        1.4719970299       12.0188187443    0   0   1
Au            2.5495761740        1.4719970299       -0.0000000000    0   0   1
Au            2.5495526478        1.1958552612       28.8451587017    0   0   1
Au            2.5495578078        1.1958552612       21.6338681730    0   0   1
Au            2.5495637276        1.4719970299       14.4225793509    0   0   1
Au            2.5495699534        1.4719970299        7.2112897049    0   0   1

     Writing config-only to output data dir ./pwscf.save/
     NEW-OLD atomic charge density approx. for the potential

[...]

     Self-consistent Calculation

[...]

     iteration # 17     ecut=    50.00 Ry     beta= 0.08
     Davidson diagonalization with overlap
     c_bands:  1 eigenvalues not converged
     c_bands:  1 eigenvalues not converged
     c_bands:  1 eigenvalues not converged
     c_bands:  1 eigenvalues not converged
     ethr =  1.75E-06,  avg # of iterations = 13.0

[...]

     total energy              =  -20153.51238062 Ry
     estimated scf accuracy    <       0.00000006 Ry

     iteration # 38     ecut=    50.00 Ry     beta= 0.08
     Davidson diagonalization with overlap
     ethr =  1.99E-11,  avg # of iterations =  1.0

[...]

     End of self-consistent calculation

[...]

          k = 0.3750-0.1443 0.0000 ( 23495 PWs)   bands (ev):

[...]

          k =-0.5000-0.8660-0.0000 ( 23552 PWs)   bands (ev):

     3.9429   3.9802   4.0690   4.0691   4.1985   4.2189   4.2221   4.2498
     4.2922   4.2938   4.3982   4.4065   4.4366   4.4396   4.4905   4.4978
     4.5365   4.5411   4.5701   4.5709   4.6014   4.6115   4.6535   4.6641
     4.6921   4.6931   4.7196   4.7248   4.8819   4.8848   4.9825   4.9843
     5.0052   5.0055   5.1591   5.1592   5.4395   5.4409   5.7186   5.7328
     5.9329   5.9396   6.0249   6.0810   6.1615   6.1653   6.2109   6.2322
     6.3103   6.3178   6.3220   6.3238   6.3709   6.3770   6.4310   6.4320
     6.5616   6.5987   6.6989   6.7259   6.7697   6.7727   6.8078   6.8198
     6.9968   7.0120   7.0493   7.0745   7.1423   7.1496   7.2640   7.2694
     7.4682   7.4782   7.5528   7.5553   7.5853   7.6027   7.8455   7.8492
     7.9251   7.9690   8.0528   8.0620   8.1210   8.1314   8.3775   8.3805
     8.3857   8.3864   8.4935   8.4999   8.5764   8.5889   8.6856   8.7008
     8.7014   8.7267   8.7430   8.7451   8.7793   8.8046   8.8078   8.8097
     8.8174   8.8333   8.8417   8.8476   8.8479   8.8504   8.8675   8.8702
     8.8888   8.8920   8.9093   8.9182   8.9480   8.9499   8.9740   8.9862
     9.0218   9.0253   9.0282   9.0329   9.0663   9.0760   9.2219   9.2221
     9.2227   9.2229  10.1777  10.2546  10.5556  10.5652  10.9120  10.9654
    11.2163  11.2526  11.4657  11.4690  11.5900  11.6332  11.6945  11.7386
    11.7757  11.8024  11.8261  11.8726  11.8840  11.8916  11.9045  12.1225
    12.1238  12.1240  12.1244  12.1724  13.4259  13.6277  13.7292  13.7496
    13.9284  14.0767  14.2730  14.3120  14.5063  14.6076  14.8561  14.9289
    15.2873  15.4278  15.8416  15.9662

     the Fermi energy is    10.7393 ev

!    total energy              =  -20153.51238062 Ry

     total all-electron energy =   -988623.510748 Ry
     estimated scf accuracy    <       0.00000004 Ry
     smearing contrib. (-TS)   =      -0.00035366 Ry
     internal energy E=F+TS    =  -20153.51202696 Ry

     The total energy is F=E-TS. E is the sum of the following terms:
     one-electron contribution =   -8804.03305687 Ry
     hartree contribution      =    4727.55837591 Ry
     xc contribution           =    -833.60129488 Ry
     ewald contribution        =    2761.89820046 Ry
     one-center paw contrib.   =  -18005.33425158 Ry

     convergence has been achieved in  38 iterations

     negative rho (up, down):  2.272E-03 0.000E+00

     Forces acting on atoms (cartesian axes, Ry/au):

     atom    1 type  1   force =    -0.00005194   -0.00006000   -0.00308270
     atom    2 type  1   force =     0.00004492    0.00008557    0.00310514
     atom    3 type  1   force =     0.00004814    0.00000426   -0.00005397
     atom    4 type  1   force =     0.00172053   -0.00515713   -0.00374674
     atom    5 type  1   force =    -0.00004104    0.00000182    0.00004314
     atom    6 type  1   force =     0.00001706   -0.00002263    0.00507802
     atom    7 type  1   force =    -0.00007915    0.00004260    0.00170064
     atom    8 type  1   force =    -0.00163790    0.00522270    0.00379701
     atom    9 type  1   force =     0.00000295    0.00000966   -0.00034202
     atom   10 type  1   force =     0.00008043   -0.00001473   -0.00173609
     atom   11 type  1   force =    -0.00002074    0.00004518   -0.00507959
     atom   12 type  1   force =    -0.00003370   -0.00049062    0.00053927
     atom   13 type  1   force =    -0.00005864    0.00049485   -0.00021946
     atom   14 type  1   force =     0.00001144   -0.00002471    0.00508563
     atom   15 type  1   force =    -0.00007534   -0.00000618    0.00169763
     atom   16 type  1   force =    -0.00163950    0.00517542    0.00379875
     atom   17 type  1   force =     0.00000552    0.00000979   -0.00033884
     atom   18 type  1   force =     0.00007693   -0.00001999   -0.00174275
     atom   19 type  1   force =    -0.00001325   -0.00000542   -0.00508476
     atom   20 type  1   force =    -0.00003241   -0.00054192    0.00053836
     atom   21 type  1   force =    -0.00005219    0.00049193   -0.00021593
     atom   22 type  1   force =    -0.00004742   -0.00005990   -0.00308422
     atom   23 type  1   force =     0.00005177    0.00002936    0.00310838
     atom   24 type  1   force =     0.00004612   -0.00004934   -0.00005191
     atom   25 type  1   force =     0.00171937   -0.00515477   -0.00374817
     atom   26 type  1   force =    -0.00004195   -0.00000583    0.00003517

     Total force =     0.014536     Total SCF correction =     0.000556
     Message from routine bfgs:
     history already reset at previous step: exiting
     Energy error            =      1.8E-03 Ry
     Gradient error          =      5.1E-03 Ry/Bohr

     bfgs converged in   8 scf cycles and   4 bfgs steps
     (criteria: energy <  1.0E-04 Ry, force <  1.0E-03 Ry/Bohr)

     End of BFGS Geometry Optimization

     Final energy             =  -20153.5123806172 Ry

     File ./pwscf.bfgs deleted, as requested
Begin final coordinates

ATOMIC_POSITIONS (angstrom)
Au           -0.0000000000        0.0000000000       -0.0000000000    0   0   1
Au            5.0991277561       -0.2761417687       28.8451587017    0   0   1
Au            5.0991339819       -0.2761417687       21.6338681730    0   0   1
Au            5.0991389889        0.0000000000       14.4225793509    0   0   1
Au            5.0991452147        0.0000000000        7.2112897049    0   0   1
Au            1.6997150733        0.0000000000        2.4037630192    0   0   1
Au            1.6996977676       -0.2761417687       24.0376304861    0   0   1
Au            1.6997039934       -0.2761417687       16.8263417228    0   0   1
Au            1.6997090005        0.0000000000        9.6150537833    0   0   1
Au            3.3994301414        0.0000000000        4.8075268622    0   0   1
Au            3.3994129888       -0.2761417687       26.4413963887    0   0   1
Au            3.3994189086       -0.2761417687       19.2301058012    0   0   1
Au            3.3994248284        0.0000000000       12.0188187443    0   0   1
Au            4.2492909414        1.4719970299        2.4037630192    0   0   1
Au            4.2492725751        1.1958552612       24.0376304861    0   0   1
Au            4.2492788009        1.1958552612       16.8263417228    0   0   1
Au            4.2492850215        1.4719970299        9.6150537833    0   0   1
Au            0.8498539674        1.4719970299        4.8075268622    0   0   1
Au            0.8498368147        1.1958552612       26.4413963887    0   0   1
Au            0.8498428875        1.1958552612       19.2301058012    0   0   1
Au            0.8498488838        1.4719970299       12.0188187443    0   0   1
Au            2.5495761740        1.4719970299       -0.0000000000    0   0   1
Au            2.5495526478        1.1958552612       28.8451587017    0   0   1
Au            2.5495578078        1.1958552612       21.6338681730    0   0   1
Au            2.5495637276        1.4719970299       14.4225793509    0   0   1
Au            2.5495699534        1.4719970299        7.2112897049    0   0   1
End final coordinates

     Writing all to output data dir ./pwscf.save/

     General routines

     Parallel routines

   This run was terminated on:  11:13:22  16Feb2024

   JOB DONE.