     Program PWSCF v.7.0 starts on 14Feb2024 at 17:49: 9

     R & G space division:  proc/nbgrp/npool/nimage =      10

     Reading input from GSF111R_0.2.in
Warning: card &CELL ignored
Warning: card / ignored

     Current dimensions of program PWSCF are:
     Max number of different atomic species (ntypx) = 10
     Max number of k-points (npk) =  40000
     Max angular momentum in pseudopotentials (lmaxx) =  4
     file Au.pbe-n-kjpaw_psl.1.0.0.UPF: wavefunction(s)  6S 5D renormalized
     Found identity + ( -0.5000  0.5000  0.0000) symmetry
     This is a supercell, fractional translations are disabled

     Using Slab Decomposition

     bravais-lattice index     =            0
     lattice parameter (alat)  =       9.6360  a.u.
     unit-cell volume          =    3935.2145 (a.u.)^3
     number of atoms/cell      =           26
     number of atomic types    =            1
     number of electrons       =       286.00
     number of Kohn-Sham states=          172
     kinetic-energy cutoff     =      50.0000  Ry
     charge density cutoff     =     200.0000  Ry
     scf convergence threshold =      1.0E-06
     mixing beta               =       0.7000
     number of iterations used =            8  plain     mixing
     energy convergence thresh.=      1.0E-04
     force convergence thresh. =      1.0E-03
     Exchange-correlation= SLA  PW   PBX  PBC
                           (   1   4   3   4   0   0   0)
     nstep                     =           50

     celldm(1)=   9.635999  celldm(2)=   0.000000  celldm(3)=   0.000000
     celldm(4)=   0.000000  celldm(5)=   0.000000  celldm(6)=   0.000000

     crystal axes: (cart. coord. in units of alat)
               a(1) = (   1.000000   0.000000   0.000000 )
               a(2) = (   0.000000   0.577350   0.000000 )
               a(3) = (  -0.000005   0.000000   7.617966 )

     reciprocal axes: (cart. coord. in units 2 pi/alat)
               b(1) = (  1.000000  0.000000  0.000001 )
               b(2) = (  0.000000  1.732052  0.000000 )
               b(3) = (  0.000000  0.000000  0.131269 )

     PseudoPot. # 1 for Au read from file:
     ./Au.pbe-n-kjpaw_psl.1.0.0.UPF
     MD5 check sum: 4db85c736373c707a97ce4c36c2a9d23
     Pseudo is Projector augmented-wave + core cor, Zval = 11.0
     Generated using &quot;atomic&quot; code by A. Dal Corso  v.6.3
     Shape of augmentation charge: PSQ
     Using radial grid of 1279 points,  6 beta functions with:
                l(1) =   0
                l(2) =   0
                l(3) =   1
                l(4) =   1
                l(5) =   2
                l(6) =   2
     Q(r) pseudized with 0 coefficients

     atomic species   valence    mass     pseudopotential
        Au            11.00   196.96657     Au( 1.00)

     No symmetry found

   Cartesian axes

     site n.     atom                  positions (alat units)
         1           Au  tau(   1) = (   0.0000000   0.0000000   0.0000000  )
         2           Au  tau(   2) = (   0.9999954   0.1154702   5.6568550  )
         3           Au  tau(   3) = (   0.9999966   0.1154702   4.2426411  )
         4           Au  tau(   4) = (   0.9999976   0.0000000   2.8284275  )
         5           Au  tau(   5) = (   0.9999988   0.0000000   1.4142138  )
         6           Au  tau(   6) = (   0.3333329   0.0000000   0.4714045  )
         7           Au  tau(   7) = (   0.3333296   0.1154702   4.7140455  )
         8           Au  tau(   8) = (   0.3333308   0.1154702   3.2998319  )
         9           Au  tau(   9) = (   0.3333318   0.0000000   1.8856185  )
        10           Au  tau(  10) = (   0.6666659   0.0000000   0.9428093  )
        11           Au  tau(  11) = (   0.6666625   0.1154702   5.1854506  )
        12           Au  tau(  12) = (   0.6666637   0.1154702   3.7712367  )
        13           Au  tau(  13) = (   0.6666649   0.0000000   2.3570234  )
        14           Au  tau(  14) = (   0.8333330   0.2886749   0.4714045  )
        15           Au  tau(  15) = (   0.8333294   0.4041451   4.7140455  )
        16           Au  tau(  16) = (   0.8333306   0.4041451   3.2998319  )
        17           Au  tau(  17) = (   0.8333318   0.2886749   1.8856185  )
        18           Au  tau(  18) = (   0.1666658   0.2886749   0.9428093  )
        19           Au  tau(  19) = (   0.1666624   0.4041451   5.1854506  )
        20           Au  tau(  20) = (   0.1666636   0.4041451   3.7712367  )
        21           Au  tau(  21) = (   0.1666648   0.2886749   2.3570234  )
        22           Au  tau(  22) = (   0.5000001   0.2886749   0.0000000  )
        23           Au  tau(  23) = (   0.4999955   0.4041451   5.6568550  )
        24           Au  tau(  24) = (   0.4999965   0.4041451   4.2426411  )
        25           Au  tau(  25) = (   0.4999977   0.2886749   2.8284275  )
        26           Au  tau(  26) = (   0.4999989   0.2886749   1.4142138  )

     number of k points=    50  Gaussian smearing, width (Ry)=  0.0020
                       cart. coord. in units 2pi/alat
        k(    1) = (   0.0000000   0.0000000   0.0000000), wk =   0.0208333
        k(    2) = (   0.0000000   0.1443376   0.0000000), wk =   0.0416667
        k(    3) = (   0.0000000   0.2886753   0.0000000), wk =   0.0416667
        k(    4) = (   0.0000000   0.4330129   0.0000000), wk =   0.0416667
        k(    5) = (   0.0000000   0.5773506   0.0000000), wk =   0.0416667
        k(    6) = (   0.0000000   0.7216882   0.0000000), wk =   0.0416667
        k(    7) = (   0.0000000  -0.8660259   0.0000000), wk =   0.0208333
        k(    8) = (   0.1250000   0.0000000   0.0000001), wk =   0.0416667
        k(    9) = (   0.1250000   0.1443376   0.0000001), wk =   0.0416667
        k(   10) = (   0.1250000   0.2886753   0.0000001), wk =   0.0416667
        k(   11) = (   0.1250000   0.4330129   0.0000001), wk =   0.0416667
        k(   12) = (   0.1250000   0.5773506   0.0000001), wk =   0.0416667
        k(   13) = (   0.1250000   0.7216882   0.0000001), wk =   0.0416667
        k(   14) = (   0.1250000  -0.8660259   0.0000001), wk =   0.0416667
        k(   15) = (   0.1250000  -0.7216882   0.0000001), wk =   0.0416667
        k(   16) = (   0.1250000  -0.5773506   0.0000001), wk =   0.0416667
        k(   17) = (   0.1250000  -0.4330129   0.0000001), wk =   0.0416667
        k(   18) = (   0.1250000  -0.2886753   0.0000001), wk =   0.0416667
        k(   19) = (   0.1250000  -0.1443376   0.0000001), wk =   0.0416667
        k(   20) = (   0.2500000   0.0000000   0.0000002), wk =   0.0416667
        k(   21) = (   0.2500000   0.1443376   0.0000002), wk =   0.0416667
        k(   22) = (   0.2500000   0.2886753   0.0000002), wk =   0.0416667
        k(   23) = (   0.2500000   0.4330129   0.0000002), wk =   0.0416667
        k(   24) = (   0.2500000   0.5773506   0.0000002), wk =   0.0416667
        k(   25) = (   0.2500000   0.7216882   0.0000002), wk =   0.0416667
        k(   26) = (   0.2500000  -0.8660259   0.0000002), wk =   0.0416667
        k(   27) = (   0.2500000  -0.7216882   0.0000002), wk =   0.0416667
        k(   28) = (   0.2500000  -0.5773506   0.0000002), wk =   0.0416667
        k(   29) = (   0.2500000  -0.4330129   0.0000002), wk =   0.0416667
        k(   30) = (   0.2500000  -0.2886753   0.0000002), wk =   0.0416667
        k(   31) = (   0.2500000  -0.1443376   0.0000002), wk =   0.0416667
        k(   32) = (   0.3750000   0.0000000   0.0000002), wk =   0.0416667
        k(   33) = (   0.3750000   0.1443376   0.0000002), wk =   0.0416667
        k(   34) = (   0.3750000   0.2886753   0.0000002), wk =   0.0416667
        k(   35) = (   0.3750000   0.4330129   0.0000002), wk =   0.0416667
        k(   36) = (   0.3750000   0.5773506   0.0000002), wk =   0.0416667
        k(   37) = (   0.3750000   0.7216882   0.0000002), wk =   0.0416667
        k(   38) = (   0.3750000  -0.8660259   0.0000002), wk =   0.0416667
        k(   39) = (   0.3750000  -0.7216882   0.0000002), wk =   0.0416667
        k(   40) = (   0.3750000  -0.5773506   0.0000002), wk =   0.0416667
        k(   41) = (   0.3750000  -0.4330129   0.0000002), wk =   0.0416667
        k(   42) = (   0.3750000  -0.2886753   0.0000002), wk =   0.0416667
        k(   43) = (   0.3750000  -0.1443376   0.0000002), wk =   0.0416667
        k(   44) = (  -0.5000000   0.0000000  -0.0000003), wk =   0.0208333
        k(   45) = (  -0.5000000   0.1443376  -0.0000003), wk =   0.0416667
        k(   46) = (  -0.5000000   0.2886753  -0.0000003), wk =   0.0416667
        k(   47) = (  -0.5000000   0.4330129  -0.0000003), wk =   0.0416667
        k(   48) = (  -0.5000000   0.5773506  -0.0000003), wk =   0.0416667
        k(   49) = (  -0.5000000   0.7216882  -0.0000003), wk =   0.0416667
        k(   50) = (  -0.5000000  -0.8660259  -0.0000003), wk =   0.0208333

     Initial potential from superposition of free atoms

     starting charge     285.9971, renormalised to     286.0000

     negative rho (up, down):  2.509E-03 0.000E+00
     Starting wfcs are  234 randomized atomic wfcs
     Checking if some PAW data can be deallocated...

     Self-consistent Calculation

     iteration #  1     ecut=    50.00 Ry     beta= 0.70
     Davidson diagonalization with overlap
     ethr =  1.00E-02,  avg # of iterations =  5.0

     Threshold (ethr) on eigenvalues was too large:
     Diagonalizing with lowered threshold

     Davidson diagonalization with overlap
     ethr =  3.97E-04,  avg # of iterations =  4.4

     negative rho (up, down):  1.755E-03 0.000E+00

     total energy              =  -20152.82023327 Ry
     estimated scf accuracy    <       1.44829511 Ry

     iteration #  2     ecut=    50.00 Ry     beta= 0.70
     Davidson diagonalization with overlap
     c_bands:  1 eigenvalues not converged
     c_bands:  1 eigenvalues not converged
     c_bands:  2 eigenvalues not converged
     ethr =  5.06E-04,  avg # of iterations = 16.3

[...]

     End of self-consistent calculation

          k = 0.0000 0.0000 0.0000 ( 23605 PWs)   bands (ev):

     1.5104   1.6537   1.8892   2.1940   2.5552   2.9469   3.3236   3.6279
     3.8173   3.8958   3.9391   3.9529   4.0698   4.0750   4.0780   4.2097
     4.2337   4.2896   4.4123   4.4342   4.5179   4.5406   4.5708   4.6057
     4.6607   4.6962   4.7529   4.8840   4.9845   5.0056   5.1641   5.4410
     5.6604   5.7791   5.8246   5.9696   6.1426   6.1459   6.1787   6.2327
     6.2513   6.2736   6.3131   6.3198   6.3228   6.3344   6.3446   6.3565
     6.3574   6.3747   6.3957   6.4049   6.4070   6.4094   6.4255   6.4393
     6.4423   6.4596   6.4777   6.4870   6.5065   6.5306   6.5360   6.5464
     6.5634   6.5667   6.5796   6.5915   6.6344   6.6422   6.7018   6.7064
     6.7534   6.7717   6.8536   6.8719   6.8721   6.8749   6.8753   7.0399
     7.0865   7.1477   7.1787   7.3013   7.4434   7.4641   7.5688   7.5762
     7.6110   7.6856   7.6882   7.6968   7.7047   7.7230   7.7372   7.7722
     7.8033   7.8100   7.8767   7.8903   7.9038   7.9536   8.0193   8.0245
     8.0307   8.1063   8.1764   8.2036   8.3139   8.3714   8.3874   8.3901
     8.4802   8.5166   8.5346   8.5579   8.5730   8.5982   8.6982   8.7122
[...]

     total all-electron energy =   -988623.502426 Ry
     estimated scf accuracy    <       0.00000071 Ry
     smearing contrib. (-TS)   =      -0.00031919 Ry
     internal energy E=F+TS    =  -20153.50373966 Ry

     The total energy is F=E-TS. E is the sum of the following terms:
     one-electron contribution =   -8804.41298159 Ry
     hartree contribution      =    4727.72771378 Ry
     xc contribution           =    -833.61552921 Ry
     ewald contribution        =    2762.13547721 Ry
     one-center paw contrib.   =  -18005.33841985 Ry

     convergence has been achieved in  29 iterations

[...]

     Forces acting on atoms (cartesian axes, Ry/au):

     atom    1 type  1   force =    -0.00005510    0.00004017   -0.00303466
     atom    2 type  1   force =     0.00003287   -0.00004540    0.00280110
     atom    3 type  1   force =     0.00005618    0.00003884   -0.00030105
     atom    4 type  1   force =     0.00735825    0.01008748   -0.01609305
     atom    5 type  1   force =    -0.00003196   -0.00000347   -0.00019364
     atom    6 type  1   force =     0.00000727   -0.00000442    0.00535221
     atom    7 type  1   force =    -0.00006992   -0.00001277    0.00157763
     atom    8 type  1   force =    -0.00723079   -0.01013437    0.01668523
     atom    9 type  1   force =    -0.00001008   -0.00004417   -0.00082178
     atom   10 type  1   force =     0.00007047    0.00000212   -0.00156197
     atom   11 type  1   force =    -0.00001898    0.00001333   -0.00482492
     atom   12 type  1   force =    -0.00010284    0.00093292    0.00091811
     atom   13 type  1   force =    -0.00001603   -0.00086576   -0.00050961
     atom   14 type  1   force =     0.00001174   -0.00000615    0.00535998
     atom   15 type  1   force =    -0.00007824   -0.00001214    0.00157119
     atom   16 type  1   force =    -0.00722904   -0.01013394    0.01668582
     atom   17 type  1   force =    -0.00000351   -0.00004718   -0.00081912
     atom   18 type  1   force =     0.00007102   -0.00000163   -0.00156380
     atom   19 type  1   force =    -0.00001678    0.00001339   -0.00482422
     atom   20 type  1   force =    -0.00009557    0.00093148    0.00090833
     atom   21 type  1   force =    -0.00001371   -0.00086311   -0.00050546
     atom   22 type  1   force =    -0.00003804    0.00003510   -0.00302178
     atom   23 type  1   force =     0.00001987   -0.00004487    0.00280456
     atom   24 type  1   force =     0.00006127    0.00004362   -0.00029813
     atom   25 type  1   force =     0.00735455    0.01008848   -0.01608978
     atom   26 type  1   force =    -0.00003291   -0.00000756   -0.00020121

     Total force =     0.035018     Total SCF correction =     0.004604
     SCF correction compared to forces is large: reduce conv_thr to get better values
     Energy error            =      1.1E-02 Ry
     Gradient error          =      1.7E-02 Ry/Bohr

     number of scf cycles    =   2
     number of bfgs steps    =   1

     energy             old  =  -20153.5147693796 Ry
     energy             new  =  -20153.5040588520 Ry

     CASE: energy            _new > energy            _old

     new trust radius        =       0.0000000000 bohr

     trust_radius < trust_radius_min

     resetting bfgs history

     new conv_thr            =       0.0000010000 Ry

ATOMIC_POSITIONS (angstrom)
Au           -0.0000000000        0.0000000000       -0.0018822441    0   0   1
Au            5.0991277561        0.0000000000       28.8468360773    0   0   1
Au            5.0991339819        0.0000000000       21.6338501163    0   0   1
Au            5.0991389889        0.0000000000       14.4224974889    0   0   1
Au            5.0991452147        0.0000000000        7.2113768625    0   0   1
Au            1.6997150733        0.0000000000        2.4065068590    0   0   1
Au            1.6996977676        0.0000000000       24.0384286741    0   0   1
Au            1.6997039934        0.0000000000       16.8261596789    0   0   1
Au            1.6997090005        0.0000000000        9.6149472659    0   0   1
Au            3.3994301414        0.0000000000        4.8068813177    0   0   1
Au            3.3994129888        0.0000000000       26.4386773055    0   0   1
Au            3.3994189086        0.0000000000       19.2303519545    0   0   1
Au            3.3994248284        0.0000000000       12.0188926309    0   0   1
Au            4.2492909414        1.4719970299        2.4065026086    0   0   1
Au            4.2492725751        1.4719970299       24.0384254647    0   0   1
Au            4.2492788009        1.4719970299       16.8261612173    0   0   1
Au            4.2492850215        1.4719970299        9.6149482473    0   0   1
Au            0.8498539674        1.4719970299        4.8068760841    0   0   1
Au            0.8498368147        1.4719970299       26.4386852591    0   0   1
Au            0.8498428875        1.4719970299       19.2303575786    0   0   1
Au            0.8498488838        1.4719970299       12.0188994616    0   0   1
Au            2.5495761740        1.4719970299       -0.0018756306    0   0   1
Au            2.5495526478        1.4719970299       28.8468391996    0   0   1
Au            2.5495578078        1.4719970299       21.6338487786    0   0   1
Au            2.5495637276        1.4719970299       14.4224914014    0   0   1
Au            2.5495699534        1.4719970299        7.2113818192    0   0   1

     Writing config-only to output data dir ./pwscf.save/
     NEW-OLD atomic charge density approx. for the potential

[...]

     Total force =     0.010093     Total SCF correction =     0.004597
     SCF correction compared to forces is large: reduce conv_thr to get better values
     Energy error            =      2.9E-07 Ry
     Gradient error          =      4.4E-03 Ry/Bohr

     number of scf cycles    =   4
     number of bfgs steps    =   2

     energy             old  =  -20153.5149093802 Ry
     energy             new  =  -20153.5149096664 Ry

     CASE: energy            _new < energy            _old

     WARNING: unexpected behaviour in update_inverse_hessian
              resetting bfgs history

     small trust_radius: resetting bfgs history

     new trust radius        =       0.0001000000 bohr
     new conv_thr            =       0.0000000100 Ry

ATOMIC_POSITIONS (angstrom)
Au           -0.0000000000        0.0000000000       -0.0019177839    0   0   1
Au            5.0991277561        0.0000000000       28.8468621751    0   0   1
Au            5.0991339819        0.0000000000       21.6338514526    0   0   1
Au            5.0991389889        0.0000000000       14.4224975163    0   0   1
Au            5.0991452147        0.0000000000        7.2113750313    0   0   1
Au            1.6997150733        0.0000000000        2.4065566163    0   0   1
Au            1.6996977676        0.0000000000       24.0384385543    0   0   1
Au            1.6997039934        0.0000000000       16.8261638036    0   0   1
Au            1.6997090005        0.0000000000        9.6149458007    0   0   1
Au            3.3994301414        0.0000000000        4.8068711444    0   0   1
Au            3.3994129888        0.0000000000       26.4386243877    0   0   1
Au            3.3994189086        0.0000000000       19.2303598731    0   0   1
Au            3.3994248284        0.0000000000       12.0188952732    0   0   1
Au            4.2492909414        1.4719970299        2.4065522288    0   0   1
Au            4.2492725751        1.4719970299       24.0384352545    0   0   1
Au            4.2492788009        1.4719970299       16.8261652750    0   0   1
Au            4.2492850215        1.4719970299        9.6149468019    0   0   1
Au            0.8498539674        1.4719970299        4.8068657853    0   0   1
Au            0.8498368147        1.4719970299       26.4386324923    0   0   1
Au            0.8498428875        1.4719970299       19.2303655954    0   0   1
Au            0.8498488838        1.4719970299       12.0189022537    0   0   1
Au            2.5495761740        1.4719970299       -0.0019110580    0   0   1
Au            2.5495526478        1.4719970299       28.8468653468    0   0   1
Au            2.5495578078        1.4719970299       21.6338501292    0   0   1
Au            2.5495637276        1.4719970299       14.4224914329    0   0   1
Au            2.5495699534        1.4719970299        7.2113800937    0   0   1

     Writing config-only to output data dir ./pwscf.save/
     NEW-OLD atomic charge density approx. for the potential

[...]

     Self-consistent Calculation

[...]

     iteration #  3     ecut=    50.00 Ry     beta= 0.70
     Davidson diagonalization with overlap
     c_bands:  1 eigenvalues not converged
     c_bands:  4 eigenvalues not converged
     c_bands:  1 eigenvalues not converged
     c_bands:  1 eigenvalues not converged
     c_bands:  1 eigenvalues not converged
     c_bands:  1 eigenvalues not converged
     c_bands:  1 eigenvalues not converged
     c_bands:  1 eigenvalues not converged
     ethr =  1.43E-06,  avg # of iterations = 17.7

[...]

     total energy              =  -20153.51491258 Ry
     estimated scf accuracy    <       0.00000005 Ry

     iteration # 20     ecut=    50.00 Ry     beta= 0.70
     Davidson diagonalization with overlap
     ethr =  7.32E-12,  avg # of iterations =  1.6

[...]

     End of self-consistent calculation

[...]

          k = 0.3750-0.1443 0.0000 ( 23495 PWs)   bands (ev):

[...]

          k =-0.5000-0.8660-0.0000 ( 23552 PWs)   bands (ev):

     3.9620   3.9621   4.0697   4.0698   4.2105   4.2105   4.2356   4.2357
     4.2908   4.2909   4.4081   4.4081   4.4338   4.4339   4.4931   4.4931
     4.5393   4.5394   4.5705   4.5705   4.6070   4.6071   4.6614   4.6614
     4.7028   4.7029   4.7059   4.7059   4.8835   4.8835   4.9889   4.9890
     5.0106   5.0106   5.1621   5.1622   5.4464   5.4465   5.7367   5.7367
     5.9483   5.9483   6.0640   6.0640   6.1652   6.1652   6.2509   6.2509
     6.3226   6.3227   6.3286   6.3286   6.3388   6.3388   6.4294   6.4294
     6.5761   6.5761   6.7419   6.7419   6.7710   6.7711   6.7826   6.7826
     7.0020   7.0021   7.0638   7.0638   7.1381   7.1381   7.2685   7.2686
     7.4907   7.4908   7.5547   7.5548   7.5764   7.5764   7.8458   7.8459
     7.9548   7.9548   8.0467   8.0468   8.1259   8.1259   8.3813   8.3814
     8.3927   8.3928   8.4895   8.4895   8.5815   8.5816   8.7010   8.7011
     8.7055   8.7055   8.7452   8.7453   8.7991   8.7992   8.8078   8.8079
     8.8230   8.8231   8.8412   8.8413   8.8466   8.8466   8.8660   8.8661
     8.8876   8.8877   8.9118   8.9119   8.9465   8.9466   8.9833   8.9834
     9.0267   9.0268   9.0300   9.0301   9.0679   9.0680   9.2244   9.2244
     9.2246   9.2247  10.2069  10.2069  10.5640  10.5641  10.9353  10.9353
    11.2455  11.2455  11.4741  11.4741  11.6294  11.6294  11.7330  11.7331
    11.8035  11.8035  11.8552  11.8552  11.8929  11.8929  11.9194  11.9194
    12.1252  12.1252  12.1254  12.1254  13.5638  13.5638  13.7387  13.7388
    14.0055  14.0056  14.2899  14.2900  14.5543  14.5543  14.8916  14.8916
    15.3583  15.3583  15.9007  15.9008

     the Fermi energy is    10.7389 ev

!    total energy              =  -20153.51491258 Ry

     total all-electron energy =   -988623.513280 Ry
     estimated scf accuracy    <          9.0E-09 Ry
     smearing contrib. (-TS)   =      -0.00037185 Ry
     internal energy E=F+TS    =  -20153.51454073 Ry

     The total energy is F=E-TS. E is the sum of the following terms:
     one-electron contribution =   -8803.91779406 Ry
     hartree contribution      =    4727.49553423 Ry
     xc contribution           =    -833.59490989 Ry
     ewald contribution        =    2761.83525010 Ry
     one-center paw contrib.   =  -18005.33262111 Ry

     convergence has been achieved in  20 iterations

     negative rho (up, down):  1.969E-03 0.000E+00

     Forces acting on atoms (cartesian axes, Ry/au):

     atom    1 type  1   force =    -0.00004271   -0.00000006   -0.00255670
     atom    2 type  1   force =     0.00005021    0.00000007    0.00250240
     atom    3 type  1   force =     0.00004548    0.00000006    0.00002812
     atom    4 type  1   force =    -0.00000138   -0.00000006    0.00005815
     atom    5 type  1   force =    -0.00004560    0.00000001   -0.00010437
     atom    6 type  1   force =     0.00000569    0.00000011    0.00407959
     atom    7 type  1   force =    -0.00008602   -0.00000027    0.00108724
     atom    8 type  1   force =     0.00007488   -0.00000008    0.00010508
     atom    9 type  1   force =     0.00000786   -0.00000012   -0.00023520
     atom   10 type  1   force =     0.00008752    0.00000014   -0.00106651
     atom   11 type  1   force =    -0.00000942   -0.00000014   -0.00406370
     atom   12 type  1   force =    -0.00001026   -0.00000004    0.00015365
     atom   13 type  1   force =    -0.00007464   -0.00000006    0.00000110
     atom   14 type  1   force =     0.00001307    0.00000024    0.00406802
     atom   15 type  1   force =    -0.00008399    0.00000003    0.00108039
     atom   16 type  1   force =     0.00007587    0.00000000    0.00010238
     atom   17 type  1   force =     0.00000872   -0.00000001   -0.00023385
     atom   18 type  1   force =     0.00008300   -0.00000000   -0.00107646
     atom   19 type  1   force =    -0.00001371   -0.00000005   -0.00405101
     atom   20 type  1   force =    -0.00000597   -0.00000000    0.00016130
     atom   21 type  1   force =    -0.00007432    0.00000003    0.00001219
     atom   22 type  1   force =    -0.00004392    0.00000011   -0.00254776
     atom   23 type  1   force =     0.00004015    0.00000003    0.00250998
     atom   24 type  1   force =     0.00004714    0.00000010    0.00002848
     atom   25 type  1   force =     0.00000054   -0.00000002    0.00005448
     atom   26 type  1   force =    -0.00004819    0.00000001   -0.00009699

     Total force =     0.009827     Total SCF correction =     0.000589
     Message from routine bfgs:
     history already reset at previous step: exiting
     Energy error            =      2.6E-06 Ry
     Gradient error          =      4.1E-03 Ry/Bohr

     bfgs converged in   6 scf cycles and   4 bfgs steps
     (criteria: energy <  1.0E-04 Ry, force <  1.0E-03 Ry/Bohr)

     End of BFGS Geometry Optimization

     Final energy             =  -20153.5149125791 Ry

     File ./pwscf.bfgs deleted, as requested
Begin final coordinates

ATOMIC_POSITIONS (angstrom)
Au            0.0000000000        0.0000000000       -0.0019177839    0   0   1
Au            5.0991277561        0.0000000000       28.8468621751    0   0   1
Au            5.0991339819        0.0000000000       21.6338514526    0   0   1
Au            5.0991389889        0.0000000000       14.4224975163    0   0   1
Au            5.0991452147        0.0000000000        7.2113750313    0   0   1
Au            1.6997150733        0.0000000000        2.4065566163    0   0   1
Au            1.6996977676        0.0000000000       24.0384385543    0   0   1
Au            1.6997039934        0.0000000000       16.8261638036    0   0   1
Au            1.6997090005        0.0000000000        9.6149458007    0   0   1
Au            3.3994301414        0.0000000000        4.8068711444    0   0   1
Au            3.3994129888        0.0000000000       26.4386243877    0   0   1
Au            3.3994189086        0.0000000000       19.2303598731    0   0   1
Au            3.3994248284        0.0000000000       12.0188952732    0   0   1
Au            4.2492909414        1.4719970299        2.4065522288    0   0   1
Au            4.2492725751        1.4719970299       24.0384352545    0   0   1
Au            4.2492788009        1.4719970299       16.8261652750    0   0   1
Au            4.2492850215        1.4719970299        9.6149468019    0   0   1
Au            0.8498539674        1.4719970299        4.8068657853    0   0   1
Au            0.8498368147        1.4719970299       26.4386324923    0   0   1
Au            0.8498428875        1.4719970299       19.2303655954    0   0   1
Au            0.8498488838        1.4719970299       12.0189022537    0   0   1
Au            2.5495761740        1.4719970299       -0.0019110580    0   0   1
Au            2.5495526478        1.4719970299       28.8468653468    0   0   1
Au            2.5495578078        1.4719970299       21.6338501292    0   0   1
Au            2.5495637276        1.4719970299       14.4224914329    0   0   1
Au            2.5495699534        1.4719970299        7.2113800937    0   0   1
End final coordinates

     Writing all to output data dir ./pwscf.save/

     General routines

     Parallel routines

   This run was terminated on:  19:39:43  14Feb2024

   JOB DONE.