     Program PWSCF v.7.0 starts on 16Feb2024 at  1:19:22

     R & G space division:  proc/nbgrp/npool/nimage =      10

     Reading input from GSF111_0.5.in
Warning: card &CELL ignored
Warning: card / ignored

     Current dimensions of program PWSCF are:
     Max number of different atomic species (ntypx) = 10
     Max number of k-points (npk) =  40000
     Max angular momentum in pseudopotentials (lmaxx) =  4
     file Au.pbe-n-kjpaw_psl.1.0.0.UPF: wavefunction(s)  6S 5D renormalized
     Found identity + ( -0.5000  0.5000  0.0000) symmetry
     This is a supercell, fractional translations are disabled
     Message from routine setup:
     using ibrav=0 with symmetry is DISCOURAGED, use correct ibrav instead

     Using Slab Decomposition

     bravais-lattice index     =            0
     lattice parameter (alat)  =       9.6360  a.u.
     unit-cell volume          =    3935.2145 (a.u.)^3
     number of atoms/cell      =           26
     number of atomic types    =            1
     number of electrons       =       286.00
     number of Kohn-Sham states=          172
     kinetic-energy cutoff     =      50.0000  Ry
     charge density cutoff     =     200.0000  Ry
     scf convergence threshold =      1.0E-06
     mixing beta               =       0.7000
     number of iterations used =            8  plain     mixing
     Exchange-correlation= SLA  PW   PBX  PBC
                           (   1   4   3   4   0   0   0)

     celldm(1)=   9.635999  celldm(2)=   0.000000  celldm(3)=   0.000000
     celldm(4)=   0.000000  celldm(5)=   0.000000  celldm(6)=   0.000000

     crystal axes: (cart. coord. in units of alat)
               a(1) = (   1.000000   0.000000   0.000000 )
               a(2) = (   0.000000   0.577350   0.000000 )
               a(3) = (  -0.000005   0.000000   7.617966 )

     reciprocal axes: (cart. coord. in units 2 pi/alat)
               b(1) = (  1.000000  0.000000  0.000001 )
               b(2) = (  0.000000  1.732052  0.000000 )
               b(3) = (  0.000000  0.000000  0.131269 )

     PseudoPot. # 1 for Au read from file:
     ./Au.pbe-n-kjpaw_psl.1.0.0.UPF
     MD5 check sum: 4db85c736373c707a97ce4c36c2a9d23
     Pseudo is Projector augmented-wave + core cor, Zval = 11.0
     Generated using &quot;atomic&quot; code by A. Dal Corso  v.6.3
     Shape of augmentation charge: PSQ
     Using radial grid of 1279 points,  6 beta functions with:
                l(1) =   0
                l(2) =   0
                l(3) =   1
                l(4) =   1
                l(5) =   2
                l(6) =   2
     Q(r) pseudized with 0 coefficients

     atomic species   valence    mass     pseudopotential
        Au            11.00   196.96657     Au( 1.00)

      2 Sym. Ops. (no inversion) found

   Cartesian axes

     site n.     atom                  positions (alat units)
         1           Au  tau(   1) = (   0.0000000   0.0000000   0.0000000  )
         2           Au  tau(   2) = (   0.9999954   0.2886755   5.6568550  )
         3           Au  tau(   3) = (   0.9999966   0.2886755   4.2426411  )
         4           Au  tau(   4) = (   0.9999976   0.0000000   2.8284275  )
         5           Au  tau(   5) = (   0.9999988   0.0000000   1.4142138  )
         6           Au  tau(   6) = (   0.3333329   0.0000000   0.4714045  )
         7           Au  tau(   7) = (   0.3333296   0.2886755   4.7140455  )
         8           Au  tau(   8) = (   0.3333308   0.2886755   3.2998319  )
         9           Au  tau(   9) = (   0.3333318   0.0000000   1.8856185  )
        10           Au  tau(  10) = (   0.6666659   0.0000000   0.9428093  )
        11           Au  tau(  11) = (   0.6666625   0.2886755   5.1854506  )
        12           Au  tau(  12) = (   0.6666637   0.2886755   3.7712367  )
        13           Au  tau(  13) = (   0.6666649   0.0000000   2.3570234  )
        14           Au  tau(  14) = (   0.8333330   0.2886749   0.4714045  )
        15           Au  tau(  15) = (   0.8333294   0.5773504   4.7140455  )
        16           Au  tau(  16) = (   0.8333306   0.5773504   3.2998319  )
        17           Au  tau(  17) = (   0.8333318   0.2886749   1.8856185  )
        18           Au  tau(  18) = (   0.1666658   0.2886749   0.9428093  )
        19           Au  tau(  19) = (   0.1666624   0.5773504   5.1854506  )
        20           Au  tau(  20) = (   0.1666636   0.5773504   3.7712367  )
        21           Au  tau(  21) = (   0.1666648   0.2886749   2.3570234  )
        22           Au  tau(  22) = (   0.5000001   0.2886749   0.0000000  )
        23           Au  tau(  23) = (   0.4999955   0.5773504   5.6568550  )
        24           Au  tau(  24) = (   0.4999965   0.5773504   4.2426411  )
        25           Au  tau(  25) = (   0.4999977   0.2886749   2.8284275  )
        26           Au  tau(  26) = (   0.4999989   0.2886749   1.4142138  )

     number of k points=    35  Gaussian smearing, width (Ry)=  0.0200
                       cart. coord. in units 2pi/alat
        k(    1) = (   0.0000000   0.0000000   0.0000000), wk =   0.0208333
        k(    2) = (   0.0000000   0.1443376   0.0000000), wk =   0.0416667
        k(    3) = (   0.0000000   0.2886753   0.0000000), wk =   0.0416667
        k(    4) = (   0.0000000   0.4330129   0.0000000), wk =   0.0416667
        k(    5) = (   0.0000000   0.5773506   0.0000000), wk =   0.0416667
        k(    6) = (   0.0000000   0.7216882   0.0000000), wk =   0.0416667
        k(    7) = (   0.0000000  -0.8660259   0.0000000), wk =   0.0208333
        k(    8) = (   0.1250000   0.0000000   0.0000001), wk =   0.0416667
        k(    9) = (   0.1250000   0.1443376   0.0000001), wk =   0.0833333
        k(   10) = (   0.1250000   0.2886753   0.0000001), wk =   0.0833333
        k(   11) = (   0.1250000   0.4330129   0.0000001), wk =   0.0833333
        k(   12) = (   0.1250000   0.5773506   0.0000001), wk =   0.0833333
        k(   13) = (   0.1250000   0.7216882   0.0000001), wk =   0.0833333
        k(   14) = (   0.1250000  -0.8660259   0.0000001), wk =   0.0416667
        k(   15) = (   0.2500000   0.0000000   0.0000002), wk =   0.0416667
        k(   16) = (   0.2500000   0.1443376   0.0000002), wk =   0.0833333
        k(   17) = (   0.2500000   0.2886753   0.0000002), wk =   0.0833333
        k(   18) = (   0.2500000   0.4330129   0.0000002), wk =   0.0833333
        k(   19) = (   0.2500000   0.5773506   0.0000002), wk =   0.0833333
        k(   20) = (   0.2500000   0.7216882   0.0000002), wk =   0.0833333
        k(   21) = (   0.2500000  -0.8660259   0.0000002), wk =   0.0416667
        k(   22) = (   0.3750000   0.0000000   0.0000002), wk =   0.0416667
        k(   23) = (   0.3750000   0.1443376   0.0000002), wk =   0.0833333
        k(   24) = (   0.3750000   0.2886753   0.0000002), wk =   0.0833333
        k(   25) = (   0.3750000   0.4330129   0.0000002), wk =   0.0833333
        k(   26) = (   0.3750000   0.5773506   0.0000002), wk =   0.0833333
        k(   27) = (   0.3750000   0.7216882   0.0000002), wk =   0.0833333
        k(   28) = (   0.3750000  -0.8660259   0.0000002), wk =   0.0416667
        k(   29) = (  -0.5000000   0.0000000  -0.0000003), wk =   0.0208333
        k(   30) = (  -0.5000000   0.1443376  -0.0000003), wk =   0.0416667
        k(   31) = (  -0.5000000   0.2886753  -0.0000003), wk =   0.0416667
        k(   32) = (  -0.5000000   0.4330129  -0.0000003), wk =   0.0416667
        k(   33) = (  -0.5000000   0.5773506  -0.0000003), wk =   0.0416667
        k(   34) = (  -0.5000000   0.7216882  -0.0000003), wk =   0.0416667
        k(   35) = (  -0.5000000  -0.8660259  -0.0000003), wk =   0.0208333

     Initial potential from superposition of free atoms

     starting charge     285.9971, renormalised to     286.0000

     negative rho (up, down):  2.503E-03 0.000E+00
     Starting wfcs are  234 randomized atomic wfcs
     Checking if some PAW data can be deallocated...

     Self-consistent Calculation

     iteration #  1     ecut=    50.00 Ry     beta= 0.70
     Davidson diagonalization with overlap
     ethr =  1.00E-02,  avg # of iterations =  5.1

     Threshold (ethr) on eigenvalues was too large:
     Diagonalizing with lowered threshold

     Davidson diagonalization with overlap
     ethr =  3.97E-04,  avg # of iterations =  4.0

     negative rho (up, down):  1.711E-03 0.000E+00

     total energy              =  -20152.81055366 Ry
     estimated scf accuracy    <       1.44486429 Ry

     iteration #  2     ecut=    50.00 Ry     beta= 0.70
     Davidson diagonalization with overlap
     c_bands:  2 eigenvalues not converged
     ethr =  5.05E-04,  avg # of iterations = 15.0

[...]

     iteration # 21     ecut=    50.00 Ry     beta= 0.70
     Davidson diagonalization with overlap
     c_bands:  1 eigenvalues not converged
     ethr =  9.18E-08,  avg # of iterations =  3.5

[...]

     total energy              =  -20153.48878664 Ry
     estimated scf accuracy    <       0.00003530 Ry

     iteration # 34     ecut=    50.00 Ry     beta= 0.70
     Davidson diagonalization with overlap
     ethr =  4.73E-10,  avg # of iterations =  1.0

[...]

     End of self-consistent calculation

          k = 0.0000 0.0000 0.0000 ( 23605 PWs)   bands (ev):

     1.5128   1.6478   1.8899   2.1897   2.5583   2.9482   3.3248   3.6244
     3.8211   3.8860   3.9229   4.0067   4.0613   4.0655   4.0690   4.2058
     4.2147   4.2796   4.3974   4.4262   4.4624   4.5504   4.5557   4.5986
     4.6323   4.6769   4.8438   4.9353   4.9916   5.0474   5.2149   5.2994
     5.3964   5.4489   5.7463   5.9811   6.1433   6.1705   6.1864   6.2257
     6.2472   6.2649   6.3027   6.3132   6.3226   6.3243   6.3269   6.3449
     6.3484   6.3510   6.3650   6.3868   6.4024   6.4098   6.4119   6.4220
     6.4346   6.4662   6.4724   6.4724   6.5075   6.5166   6.5341   6.5463
     6.5550   6.5568   6.5603   6.5879   6.5944   6.6209   6.6272   6.6974
     6.7342   6.7611   6.8646   6.8648   6.8681   6.8681   6.9109   6.9884
     7.0515   7.1370   7.1642   7.2569   7.4892   7.5446   7.6573   7.6604
     7.6674   7.6725   7.6821   7.6920   7.6969   7.7051   7.7287   7.7470
     7.7611   7.8377   7.8482   7.8557   7.8945   7.9444   7.9943   8.0224
     8.0428   8.1259   8.1610   8.1846   8.3072   8.3489   8.3757   8.3867
     8.5098   8.5146   8.5590   8.5694   8.5819   8.6724   8.6908   8.6928
     8.7077   8.7444   8.7531   8.7573   8.7788   8.7956   8.7967   8.8035
     8.8242   8.8316   8.8411   8.8602   8.8828   8.9078   8.9377   8.9777
     9.0157   9.0706   9.1186   9.2143   9.2176   9.4234  10.2110  10.5105
    10.5695  10.6283  10.9369  11.2580  11.4725  11.6290  11.7298  11.7890
    11.8568  11.8772  11.9458  12.1153  12.1184  13.5110  13.7307  13.9715
    14.0291  14.2883  14.5406  14.8671  14.8878  15.0756  15.3445  15.8998
    16.2755  16.4149  16.4642  16.4702

[...]

          k = 0.3750-0.8660 0.0000 ( 23556 PWs)   bands (ev):

[...]

          k =-0.5000 0.0000-0.0000 ( 23442 PWs)   bands (ev):

[...]

          k =-0.5000-0.8660-0.0000 ( 23552 PWs)   bands (ev):

     3.9662   3.9663   4.0246   4.0246   4.1712   4.1712   4.2313   4.2313
     4.3109   4.3110   4.3308   4.3309   4.4754   4.4755   4.4979   4.4980
     4.5326   4.5326   4.5409   4.5410   4.6126   4.6127   4.6265   4.6265
     4.6724   4.6725   4.8030   4.8031   4.8939   4.8940   4.9718   4.9719
     4.9936   4.9937   5.1352   5.1353   5.3184   5.3185   5.5811   5.5812
     5.8447   5.8448   6.0597   6.0598   6.1550   6.1551   6.1852   6.1853
     6.2677   6.2678   6.3115   6.3116   6.3431   6.3431   6.4038   6.4039
     6.4525   6.4525   6.6783   6.6784   6.8021   6.8021   6.9100   6.9101
     6.9720   6.9721   7.0971   7.0972   7.2410   7.2411   7.2525   7.2526
     7.3638   7.3638   7.5701   7.5702   7.7068   7.7069   7.8098   7.8099
     7.9420   7.9420   8.0752   8.0753   8.2017   8.2018   8.2497   8.2498
     8.4134   8.4135   8.4910   8.4911   8.5590   8.5591   8.6805   8.6806
     8.7056   8.7057   8.7536   8.7537   8.7962   8.7963   8.8044   8.8045
     8.8254   8.8255   8.8426   8.8428   8.8578   8.8579   8.8825   8.8827
     8.8965   8.8966   8.9312   8.9313   8.9487   8.9489   8.9640   8.9640
     9.0215   9.0216   9.0291   9.0292   9.0913   9.0914   9.2142   9.2143
     9.2174   9.2176  10.3530  10.3530  10.4846  10.4846  10.9006  10.9006
    11.1779  11.1779  11.4177  11.4177  11.5973  11.5973  11.7140  11.7140
    11.7861  11.7861  11.8613  11.8613  11.8818  11.8818  12.1144  12.1144
    12.1172  12.1172  12.3016  12.3016  13.6870  13.6871  13.7807  13.7808
    14.1327  14.1327  14.2231  14.2231  14.3946  14.3946  14.7389  14.7390
    15.0845  15.0845  15.6433  15.6433

     the Fermi energy is    10.7267 ev

!    total energy              =  -20153.48878652 Ry

     total all-electron energy =   -988623.487154 Ry
     estimated scf accuracy    <       0.00000067 Ry
     smearing contrib. (-TS)   =      -0.02236425 Ry
     internal energy E=F+TS    =  -20153.46642227 Ry

     The total energy is F=E-TS. E is the sum of the following terms:
     one-electron contribution =   -8805.47063661 Ry
     hartree contribution      =    4728.25639010 Ry
     xc contribution           =    -833.64555952 Ry
     ewald contribution        =    2762.74397837 Ry
     one-center paw contrib.   =  -18005.35059460 Ry

     convergence has been achieved in  34 iterations

     negative rho (up, down):  2.311E-03 0.000E+00

     Forces acting on atoms (cartesian axes, Ry/au):

     atom    1 type  1   force =    -0.00004511    0.00000000   -0.00333142
     atom    2 type  1   force =     0.00000803    0.00000000    0.00365372
     atom    3 type  1   force =     0.00008591    0.00000000    0.00089702
     atom    4 type  1   force =     0.02341108    0.00000000   -0.05586349
     atom    5 type  1   force =     0.00000799    0.00000000   -0.00040395
     atom    6 type  1   force =     0.00012174    0.00000000    0.00444055
     atom    7 type  1   force =    -0.00005988    0.00000000    0.00147227
     atom    8 type  1   force =    -0.02337705    0.00000000    0.05559454
     atom    9 type  1   force =    -0.00001455    0.00000000   -0.00056092
     atom   10 type  1   force =     0.00003185    0.00000000   -0.00148776
     atom   11 type  1   force =    -0.00014267    0.00000000   -0.00423704
     atom   12 type  1   force =    -0.00026278    0.00000000    0.00191953
     atom   13 type  1   force =     0.00021685    0.00000000   -0.00213004
     atom   14 type  1   force =     0.00012615    0.00000000    0.00444462
     atom   15 type  1   force =    -0.00006030    0.00000000    0.00148053
     atom   16 type  1   force =    -0.02337366    0.00000000    0.05559064
     atom   17 type  1   force =    -0.00001142    0.00000000   -0.00056381
     atom   18 type  1   force =     0.00003187    0.00000000   -0.00147757
     atom   19 type  1   force =    -0.00014383    0.00000000   -0.00422220
     atom   20 type  1   force =    -0.00026122    0.00000000    0.00192742
     atom   21 type  1   force =     0.00022256    0.00000000   -0.00212397
     atom   22 type  1   force =    -0.00003458    0.00000000   -0.00332751
     atom   23 type  1   force =     0.00001438    0.00000000    0.00367306
     atom   24 type  1   force =     0.00008425    0.00000000    0.00090369
     atom   25 type  1   force =     0.02341713    0.00000000   -0.05586568
     atom   26 type  1   force =     0.00000729    0.00000000   -0.00040222

     Total force =     0.121509     Total SCF correction =     0.005427

     Writing all to output data dir ./pwscf.save/

     General routines

     Parallel routines

   This run was terminated on:   1:46:44  16Feb2024

   JOB DONE.