     Program PWSCF v.7.0 starts on 15Feb2024 at 20:24:43

     R & G space division:  proc/nbgrp/npool/nimage =      10

     Reading input from GSF111_0.1.in
Warning: card &CELL ignored
Warning: card / ignored

     Current dimensions of program PWSCF are:
     Max number of different atomic species (ntypx) = 10
     Max number of k-points (npk) =  40000
     Max angular momentum in pseudopotentials (lmaxx) =  4

     File ./pwscf.bfgs deleted, as requested
     file Au.pbe-n-kjpaw_psl.1.0.0.UPF: wavefunction(s)  6S 5D renormalized
     Found identity + ( -0.5000  0.5000  0.0000) symmetry
     This is a supercell, fractional translations are disabled

     Using Slab Decomposition

     bravais-lattice index     =            0
     lattice parameter (alat)  =       9.6360  a.u.
     unit-cell volume          =    3935.2145 (a.u.)^3
     number of atoms/cell      =           26
     number of atomic types    =            1
     number of electrons       =       286.00
     number of Kohn-Sham states=          172
     kinetic-energy cutoff     =      50.0000  Ry
     charge density cutoff     =     200.0000  Ry
     scf convergence threshold =      1.0E-06
     mixing beta               =       0.7000
     number of iterations used =            8  plain     mixing
     Exchange-correlation= SLA  PW   PBX  PBC
                           (   1   4   3   4   0   0   0)

     celldm(1)=   9.635999  celldm(2)=   0.000000  celldm(3)=   0.000000
     celldm(4)=   0.000000  celldm(5)=   0.000000  celldm(6)=   0.000000

     crystal axes: (cart. coord. in units of alat)
               a(1) = (   1.000000   0.000000   0.000000 )
               a(2) = (   0.000000   0.577350   0.000000 )
               a(3) = (  -0.000005   0.000000   7.617966 )

     reciprocal axes: (cart. coord. in units 2 pi/alat)
               b(1) = (  1.000000  0.000000  0.000001 )
               b(2) = (  0.000000  1.732052  0.000000 )
               b(3) = (  0.000000  0.000000  0.131269 )

     PseudoPot. # 1 for Au read from file:
     ./Au.pbe-n-kjpaw_psl.1.0.0.UPF
     MD5 check sum: 4db85c736373c707a97ce4c36c2a9d23
     Pseudo is Projector augmented-wave + core cor, Zval = 11.0
     Generated using &quot;atomic&quot; code by A. Dal Corso  v.6.3
     Shape of augmentation charge: PSQ
     Using radial grid of 1279 points,  6 beta functions with:
                l(1) =   0
                l(2) =   0
                l(3) =   1
                l(4) =   1
                l(5) =   2
                l(6) =   2
     Q(r) pseudized with 0 coefficients

     atomic species   valence    mass     pseudopotential
        Au            11.00   196.96657     Au( 1.00)

     No symmetry found

   Cartesian axes

     site n.     atom                  positions (alat units)
         1           Au  tau(   1) = (   0.0000000   0.0000000   0.0000000  )
         2           Au  tau(   2) = (   0.9999954   0.0577351   5.6568550  )
         3           Au  tau(   3) = (   0.9999966   0.0577351   4.2426411  )
         4           Au  tau(   4) = (   0.9999976   0.0000000   2.8284275  )
         5           Au  tau(   5) = (   0.9999988   0.0000000   1.4142138  )
         6           Au  tau(   6) = (   0.3333329   0.0000000   0.4714045  )
         7           Au  tau(   7) = (   0.3333296   0.0577351   4.7140455  )
         8           Au  tau(   8) = (   0.3333308   0.0577351   3.2998319  )
         9           Au  tau(   9) = (   0.3333318   0.0000000   1.8856185  )
        10           Au  tau(  10) = (   0.6666659   0.0000000   0.9428093  )
        11           Au  tau(  11) = (   0.6666625   0.0577351   5.1854506  )
        12           Au  tau(  12) = (   0.6666637   0.0577351   3.7712367  )
        13           Au  tau(  13) = (   0.6666649   0.0000000   2.3570234  )
        14           Au  tau(  14) = (   0.8333330   0.2886749   0.4714045  )
        15           Au  tau(  15) = (   0.8333294   0.3464100   4.7140455  )
        16           Au  tau(  16) = (   0.8333306   0.3464100   3.2998319  )
        17           Au  tau(  17) = (   0.8333318   0.2886749   1.8856185  )
        18           Au  tau(  18) = (   0.1666658   0.2886749   0.9428093  )
        19           Au  tau(  19) = (   0.1666624   0.3464100   5.1854506  )
        20           Au  tau(  20) = (   0.1666636   0.3464100   3.7712367  )
        21           Au  tau(  21) = (   0.1666648   0.2886749   2.3570234  )
        22           Au  tau(  22) = (   0.5000001   0.2886749   0.0000000  )
        23           Au  tau(  23) = (   0.4999955   0.3464100   5.6568550  )
        24           Au  tau(  24) = (   0.4999965   0.3464100   4.2426411  )
        25           Au  tau(  25) = (   0.4999977   0.2886749   2.8284275  )
        26           Au  tau(  26) = (   0.4999989   0.2886749   1.4142138  )

     number of k points=    50  Gaussian smearing, width (Ry)=  0.0200
                       cart. coord. in units 2pi/alat
        k(    1) = (   0.0000000   0.0000000   0.0000000), wk =   0.0208333
        k(    2) = (   0.0000000   0.1443376   0.0000000), wk =   0.0416667
        k(    3) = (   0.0000000   0.2886753   0.0000000), wk =   0.0416667
        k(    4) = (   0.0000000   0.4330129   0.0000000), wk =   0.0416667
        k(    5) = (   0.0000000   0.5773506   0.0000000), wk =   0.0416667
        k(    6) = (   0.0000000   0.7216882   0.0000000), wk =   0.0416667
        k(    7) = (   0.0000000  -0.8660259   0.0000000), wk =   0.0208333
        k(    8) = (   0.1250000   0.0000000   0.0000001), wk =   0.0416667
        k(    9) = (   0.1250000   0.1443376   0.0000001), wk =   0.0416667
        k(   10) = (   0.1250000   0.2886753   0.0000001), wk =   0.0416667
        k(   11) = (   0.1250000   0.4330129   0.0000001), wk =   0.0416667
        k(   12) = (   0.1250000   0.5773506   0.0000001), wk =   0.0416667
        k(   13) = (   0.1250000   0.7216882   0.0000001), wk =   0.0416667
        k(   14) = (   0.1250000  -0.8660259   0.0000001), wk =   0.0416667
        k(   15) = (   0.2500000   0.0000000   0.0000002), wk =   0.0416667
        k(   16) = (   0.2500000   0.1443376   0.0000002), wk =   0.0416667
        k(   17) = (   0.2500000   0.2886753   0.0000002), wk =   0.0416667
        k(   18) = (   0.2500000   0.4330129   0.0000002), wk =   0.0416667
        k(   19) = (   0.2500000   0.5773506   0.0000002), wk =   0.0416667
        k(   20) = (   0.2500000   0.7216882   0.0000002), wk =   0.0416667
        k(   21) = (   0.2500000  -0.8660259   0.0000002), wk =   0.0416667
        k(   22) = (   0.3750000   0.0000000   0.0000002), wk =   0.0416667
        k(   23) = (   0.3750000   0.1443376   0.0000002), wk =   0.0416667
        k(   24) = (   0.3750000   0.2886753   0.0000002), wk =   0.0416667
        k(   25) = (   0.3750000   0.4330129   0.0000002), wk =   0.0416667
        k(   26) = (   0.3750000   0.5773506   0.0000002), wk =   0.0416667
        k(   27) = (   0.3750000   0.7216882   0.0000002), wk =   0.0416667
        k(   28) = (   0.3750000  -0.8660259   0.0000002), wk =   0.0416667
        k(   29) = (  -0.5000000   0.0000000  -0.0000003), wk =   0.0208333
        k(   30) = (  -0.5000000   0.1443376  -0.0000003), wk =   0.0416667
        k(   31) = (  -0.5000000   0.2886753  -0.0000003), wk =   0.0416667
        k(   32) = (  -0.5000000   0.4330129  -0.0000003), wk =   0.0416667
        k(   33) = (  -0.5000000   0.5773506  -0.0000003), wk =   0.0416667
        k(   34) = (  -0.5000000   0.7216882  -0.0000003), wk =   0.0416667
        k(   35) = (  -0.5000000  -0.8660259  -0.0000003), wk =   0.0208333
        k(   36) = (  -0.1250000   0.1443376  -0.0000001), wk =   0.0416667
        k(   37) = (  -0.1250000   0.2886753  -0.0000001), wk =   0.0416667
        k(   38) = (  -0.1250000   0.4330129  -0.0000001), wk =   0.0416667
        k(   39) = (  -0.1250000   0.5773506  -0.0000001), wk =   0.0416667
        k(   40) = (  -0.1250000   0.7216882  -0.0000001), wk =   0.0416667
        k(   41) = (  -0.2500000   0.1443376  -0.0000002), wk =   0.0416667
        k(   42) = (  -0.2500000   0.2886753  -0.0000002), wk =   0.0416667
        k(   43) = (  -0.2500000   0.4330129  -0.0000002), wk =   0.0416667
        k(   44) = (  -0.2500000   0.5773506  -0.0000002), wk =   0.0416667
        k(   45) = (  -0.2500000   0.7216882  -0.0000002), wk =   0.0416667
        k(   46) = (  -0.3750000   0.1443376  -0.0000002), wk =   0.0416667
        k(   47) = (  -0.3750000   0.2886753  -0.0000002), wk =   0.0416667
        k(   48) = (  -0.3750000   0.4330129  -0.0000002), wk =   0.0416667
        k(   49) = (  -0.3750000   0.5773506  -0.0000002), wk =   0.0416667
        k(   50) = (  -0.3750000   0.7216882  -0.0000002), wk =   0.0416667

     Initial potential from superposition of free atoms

     starting charge     285.9971, renormalised to     286.0000

     negative rho (up, down):  2.404E-03 0.000E+00
     Starting wfcs are  234 randomized atomic wfcs
     Checking if some PAW data can be deallocated...

     Self-consistent Calculation

     iteration #  1     ecut=    50.00 Ry     beta= 0.70
     Davidson diagonalization with overlap
     ethr =  1.00E-02,  avg # of iterations =  4.9

     Threshold (ethr) on eigenvalues was too large:
     Diagonalizing with lowered threshold

     Davidson diagonalization with overlap
     ethr =  4.16E-04,  avg # of iterations =  4.6

     negative rho (up, down):  1.631E-03 0.000E+00

     total energy              =  -20152.79245656 Ry
     estimated scf accuracy    <       1.50510944 Ry

     iteration #  2     ecut=    50.00 Ry     beta= 0.70
     Davidson diagonalization with overlap
     c_bands:  4 eigenvalues not converged
     c_bands:  2 eigenvalues not converged
     c_bands:  4 eigenvalues not converged
     c_bands:  1 eigenvalues not converged
     c_bands:  1 eigenvalues not converged
     ethr =  5.26E-04,  avg # of iterations = 16.7

[...]

     iteration # 16     ecut=    50.00 Ry     beta= 0.70
     Davidson diagonalization with overlap
     c_bands:  1 eigenvalues not converged
     c_bands:  1 eigenvalues not converged
     ethr =  4.93E-06,  avg # of iterations = 12.1

[...]

     total energy              =  -20153.52347529 Ry
     estimated scf accuracy    <       0.00000121 Ry

     iteration # 28     ecut=    50.00 Ry     beta= 0.70
     Davidson diagonalization with overlap
     ethr =  4.24E-10,  avg # of iterations =  1.9

[...]

     End of self-consistent calculation

          k = 0.0000 0.0000 0.0000 ( 23605 PWs)   bands (ev):

     1.5075   1.6516   1.8838   2.1896   2.5518   2.9432   3.3197   3.6228
     3.8128   3.8961   3.9229   3.9569   4.0669   4.0726   4.0729   4.2075
     4.2309   4.2877   4.4059   4.4280   4.5009   4.5333   4.5672   4.6023
     4.6616   4.6981   4.7082   4.8771   4.9810   5.0022   5.1577   5.4391
     5.7252   5.9157   5.9950   6.0493   6.1517   6.1546   6.1885   6.2355
     6.2511   6.2763   6.3080   6.3178   6.3179   6.3245   6.3470   6.3519
     6.3544   6.3628   6.3928   6.3938   6.4029   6.4058   6.4151   6.4195
     6.4318   6.4632   6.4708   6.4813   6.4888   6.5179   6.5320   6.5383
     6.5531   6.5575   6.5795   6.5849   6.5992   6.6066   6.6422   6.7313
     6.7421   6.7421   6.8173   6.8711   6.8716   6.8716   6.8721   7.0179
     7.0682   7.1367   7.1683   7.2722   7.4763   7.5062   7.5619   7.5765
     7.6384   7.6819   7.6885   7.6926   7.7039   7.7135   7.7369   7.7647
     7.7953   7.8040   7.8530   7.8643   7.8874   7.9514   8.0002   8.0065
     8.0401   8.1171   8.1662   8.1798   8.3128   8.3663   8.3799   8.3881
     8.4805   8.5170   8.5242   8.5624   8.5676   8.6166   8.6947   8.6985
     8.7038   8.7319   8.7588   8.7598   8.7735   8.7972   8.8040   8.8200
     8.8207   8.8364   8.8390   8.8605   8.8814   8.9052   8.9382   8.9641
     9.0166   9.0264   9.0826   9.2211   9.2214   9.4046  10.2042  10.5086
    10.5614  10.6299  10.9321  11.2430  11.4692  11.6249  11.7283  11.7984
    11.8513  11.8877  11.9184  12.1223  12.1226  13.5551  13.7342  13.9398
    13.9990  14.2905  14.5541  14.8663  14.8882  15.0673  15.3524  15.8993
    16.1967  16.3774  16.4617  16.4708

[...]

          k = 0.3750-0.8660 0.0000 ( 23556 PWs)   bands (ev):

[...]

          k =-0.5000 0.0000-0.0000 ( 23442 PWs)   bands (ev):

[...]

          k =-0.3750 0.7217-0.0000 ( 23544 PWs)   bands (ev):

     3.9264   4.0570   4.1676   4.2036   4.2538   4.3159   4.3425   4.3723
     4.4132   4.4271   4.4556   4.4732   4.5558   4.5669   4.5784   4.6112
     4.6256   4.6392   4.6773   4.6996   4.7042   4.7301   4.8042   4.8125
     4.8239   4.8346   4.8670   4.9472   4.9752   4.9818   5.0586   5.0855
     5.1615   5.2039   5.2358   5.2595   5.4909   5.4944   5.7057   5.7525
     5.8606   5.9243   5.9609   6.0785   6.1038   6.1335   6.2019   6.2297
     6.2740   6.3613   6.3668   6.3689   6.4254   6.4321   6.4677   6.4778
     6.5119   6.5222   6.5611   6.6287   6.6775   6.7375   6.7473   6.7894
     6.8360   6.8412   6.9205   7.0043   7.0457   7.1252   7.1556   7.2223
     7.2442   7.2850   7.3907   7.4302   7.4971   7.5600   7.6039   7.6125
     7.7220   7.8000   7.8258   7.8474   7.8808   7.9827   8.0253   8.0852
     8.1258   8.2198   8.2325   8.3071   8.3150   8.3617   8.3740   8.4052
     8.4762   8.4853   8.4944   8.5324   8.5488   8.5527   8.5647   8.5704
     8.5919   8.6030   8.6158   8.6208   8.6400   8.6633   8.6656   8.6978
     8.6983   8.7101   8.7208   8.7245   8.7549   8.7556   8.7627   8.7888
     8.8197   8.8384   8.8606   8.8838   8.9133   8.9494   8.9780   8.9912
     9.0184   9.0364   9.0524   9.1746   9.3841   9.5227   9.5676   9.7239
    10.1869  10.7586  10.8415  10.8771  11.0593  11.1916  11.3671  11.5854
    11.5896  11.8899  12.2437  12.3314  12.5238  12.7147  12.8482  13.0199
    13.0926  13.1098  13.6615  13.7549  13.8606  14.2527  14.2844  14.3940
    14.4511  14.5197  14.6989  14.8487  14.8681  15.1534  15.2196  15.5787
    15.7426  15.8106  16.0520  16.2594

     the Fermi energy is    10.7336 ev

!    total energy              =  -20153.52347517 Ry

     total all-electron energy =   -988623.521842 Ry
     estimated scf accuracy    <       0.00000028 Ry
     smearing contrib. (-TS)   =      -0.02221574 Ry
     internal energy E=F+TS    =  -20153.50125943 Ry

     The total energy is F=E-TS. E is the sum of the following terms:
     one-electron contribution =   -8803.96620859 Ry
     hartree contribution      =    4727.48094531 Ry
     xc contribution           =    -833.59013546 Ry
     ewald contribution        =    2761.90826088 Ry
     one-center paw contrib.   =  -18005.33412158 Ry

     convergence has been achieved in  28 iterations

     negative rho (up, down):  2.233E-03 0.000E+00

     Forces acting on atoms (cartesian axes, Ry/au):

     atom    1 type  1   force =    -0.00005517    0.00002535   -0.00286311
     atom    2 type  1   force =     0.00004753   -0.00001843    0.00305685
     atom    3 type  1   force =     0.00005567   -0.00000298    0.00044908
     atom    4 type  1   force =     0.00195623    0.00547699   -0.00455650
     atom    5 type  1   force =    -0.00004950    0.00000074   -0.00028276
     atom    6 type  1   force =     0.00011844    0.00001900    0.00489421
     atom    7 type  1   force =    -0.00002983   -0.00000643    0.00128375
     atom    8 type  1   force =    -0.00193464   -0.00549263    0.00457479
     atom    9 type  1   force =     0.00001171   -0.00000749    0.00005198
     atom   10 type  1   force =     0.00002738    0.00000186   -0.00133795
     atom   11 type  1   force =    -0.00011706   -0.00001266   -0.00484387
     atom   12 type  1   force =    -0.00003785    0.00055990    0.00046100
     atom   13 type  1   force =    -0.00000435   -0.00054850   -0.00088958
     atom   14 type  1   force =     0.00011064    0.00001969    0.00489990
     atom   15 type  1   force =    -0.00002531   -0.00000829    0.00128206
     atom   16 type  1   force =    -0.00193302   -0.00549308    0.00457496
     atom   17 type  1   force =     0.00001498   -0.00000701    0.00005332
     atom   18 type  1   force =     0.00002444    0.00000595   -0.00134073
     atom   19 type  1   force =    -0.00011593   -0.00000874   -0.00484855
     atom   20 type  1   force =    -0.00003886    0.00055868    0.00046173
     atom   21 type  1   force =     0.00000526   -0.00054580   -0.00087922
     atom   22 type  1   force =    -0.00005041    0.00002320   -0.00286750
     atom   23 type  1   force =     0.00006029   -0.00001955    0.00306224
     atom   24 type  1   force =     0.00005185    0.00000143    0.00045450
     atom   25 type  1   force =     0.00195638    0.00547444   -0.00456132
     atom   26 type  1   force =    -0.00004888    0.00000437   -0.00028928

     Total force =     0.018966     Total SCF correction =     0.003169
     SCF correction compared to forces is large: reduce conv_thr to get better values

     Writing all to output data dir ./pwscf.save/

     General routines

     Parallel routines

   This run was terminated on:  20:58:33  15Feb2024

   JOB DONE.