     Program PWSCF v.7.0 starts on 14Feb2024 at 17:49: 8

     R & G space division:  proc/nbgrp/npool/nimage =      10

     Reading input from GSF111R_0.25.in
Warning: card &CELL ignored
Warning: card / ignored

     Current dimensions of program PWSCF are:
     Max number of different atomic species (ntypx) = 10
     Max number of k-points (npk) =  40000
     Max angular momentum in pseudopotentials (lmaxx) =  4
     file Au.pbe-n-kjpaw_psl.1.0.0.UPF: wavefunction(s)  6S 5D renormalized
     Found identity + ( -0.5000  0.5000  0.0000) symmetry
     This is a supercell, fractional translations are disabled

     Using Slab Decomposition

     bravais-lattice index     =            0
     lattice parameter (alat)  =       9.6360  a.u.
     unit-cell volume          =    3935.2145 (a.u.)^3
     number of atoms/cell      =           26
     number of atomic types    =            1
     number of electrons       =       286.00
     number of Kohn-Sham states=          172
     kinetic-energy cutoff     =      50.0000  Ry
     charge density cutoff     =     200.0000  Ry
     scf convergence threshold =      1.0E-06
     mixing beta               =       0.7000
     number of iterations used =            8  plain     mixing
     energy convergence thresh.=      1.0E-04
     force convergence thresh. =      1.0E-03
     Exchange-correlation= SLA  PW   PBX  PBC
                           (   1   4   3   4   0   0   0)
     nstep                     =           50

     celldm(1)=   9.635999  celldm(2)=   0.000000  celldm(3)=   0.000000
     celldm(4)=   0.000000  celldm(5)=   0.000000  celldm(6)=   0.000000

     crystal axes: (cart. coord. in units of alat)
               a(1) = (   1.000000   0.000000   0.000000 )
               a(2) = (   0.000000   0.577350   0.000000 )
               a(3) = (  -0.000005   0.000000   7.617966 )

     reciprocal axes: (cart. coord. in units 2 pi/alat)
               b(1) = (  1.000000  0.000000  0.000001 )
               b(2) = (  0.000000  1.732052  0.000000 )
               b(3) = (  0.000000  0.000000  0.131269 )

     PseudoPot. # 1 for Au read from file:
     ./Au.pbe-n-kjpaw_psl.1.0.0.UPF
     MD5 check sum: 4db85c736373c707a97ce4c36c2a9d23
     Pseudo is Projector augmented-wave + core cor, Zval = 11.0
     Generated using &quot;atomic&quot; code by A. Dal Corso  v.6.3
     Shape of augmentation charge: PSQ
     Using radial grid of 1279 points,  6 beta functions with:
                l(1) =   0
                l(2) =   0
                l(3) =   1
                l(4) =   1
                l(5) =   2
                l(6) =   2
     Q(r) pseudized with 0 coefficients

     atomic species   valence    mass     pseudopotential
        Au            11.00   196.96657     Au( 1.00)

     No symmetry found

   Cartesian axes

     site n.     atom                  positions (alat units)
         1           Au  tau(   1) = (   0.0000000   0.0000000   0.0000000  )
         2           Au  tau(   2) = (   0.9999954   0.1443377   5.6568550  )
         3           Au  tau(   3) = (   0.9999966   0.1443377   4.2426411  )
         4           Au  tau(   4) = (   0.9999976   0.0000000   2.8284275  )
         5           Au  tau(   5) = (   0.9999988   0.0000000   1.4142138  )
         6           Au  tau(   6) = (   0.3333329   0.0000000   0.4714045  )
         7           Au  tau(   7) = (   0.3333296   0.1443377   4.7140455  )
         8           Au  tau(   8) = (   0.3333308   0.1443377   3.2998319  )
         9           Au  tau(   9) = (   0.3333318   0.0000000   1.8856185  )
        10           Au  tau(  10) = (   0.6666659   0.0000000   0.9428093  )
        11           Au  tau(  11) = (   0.6666625   0.1443377   5.1854506  )
        12           Au  tau(  12) = (   0.6666637   0.1443377   3.7712367  )
        13           Au  tau(  13) = (   0.6666649   0.0000000   2.3570234  )
        14           Au  tau(  14) = (   0.8333330   0.2886749   0.4714045  )
        15           Au  tau(  15) = (   0.8333294   0.4330127   4.7140455  )
        16           Au  tau(  16) = (   0.8333306   0.4330127   3.2998319  )
        17           Au  tau(  17) = (   0.8333318   0.2886749   1.8856185  )
        18           Au  tau(  18) = (   0.1666658   0.2886749   0.9428093  )
        19           Au  tau(  19) = (   0.1666624   0.4330127   5.1854506  )
        20           Au  tau(  20) = (   0.1666636   0.4330127   3.7712367  )
        21           Au  tau(  21) = (   0.1666648   0.2886749   2.3570234  )
        22           Au  tau(  22) = (   0.5000001   0.2886749   0.0000000  )
        23           Au  tau(  23) = (   0.4999955   0.4330127   5.6568550  )
        24           Au  tau(  24) = (   0.4999965   0.4330127   4.2426411  )
        25           Au  tau(  25) = (   0.4999977   0.2886749   2.8284275  )
        26           Au  tau(  26) = (   0.4999989   0.2886749   1.4142138  )

     number of k points=    50  Gaussian smearing, width (Ry)=  0.0020
                       cart. coord. in units 2pi/alat
        k(    1) = (   0.0000000   0.0000000   0.0000000), wk =   0.0208333
        k(    2) = (   0.0000000   0.1443376   0.0000000), wk =   0.0416667
        k(    3) = (   0.0000000   0.2886753   0.0000000), wk =   0.0416667
        k(    4) = (   0.0000000   0.4330129   0.0000000), wk =   0.0416667
        k(    5) = (   0.0000000   0.5773506   0.0000000), wk =   0.0416667
        k(    6) = (   0.0000000   0.7216882   0.0000000), wk =   0.0416667
        k(    7) = (   0.0000000  -0.8660259   0.0000000), wk =   0.0208333
        k(    8) = (   0.1250000   0.0000000   0.0000001), wk =   0.0416667
        k(    9) = (   0.1250000   0.1443376   0.0000001), wk =   0.0416667
        k(   10) = (   0.1250000   0.2886753   0.0000001), wk =   0.0416667
        k(   11) = (   0.1250000   0.4330129   0.0000001), wk =   0.0416667
        k(   12) = (   0.1250000   0.5773506   0.0000001), wk =   0.0416667
        k(   13) = (   0.1250000   0.7216882   0.0000001), wk =   0.0416667
        k(   14) = (   0.1250000  -0.8660259   0.0000001), wk =   0.0416667
        k(   15) = (   0.1250000  -0.7216882   0.0000001), wk =   0.0416667
        k(   16) = (   0.1250000  -0.5773506   0.0000001), wk =   0.0416667
        k(   17) = (   0.1250000  -0.4330129   0.0000001), wk =   0.0416667
        k(   18) = (   0.1250000  -0.2886753   0.0000001), wk =   0.0416667
        k(   19) = (   0.1250000  -0.1443376   0.0000001), wk =   0.0416667
        k(   20) = (   0.2500000   0.0000000   0.0000002), wk =   0.0416667
        k(   21) = (   0.2500000   0.1443376   0.0000002), wk =   0.0416667
        k(   22) = (   0.2500000   0.2886753   0.0000002), wk =   0.0416667
        k(   23) = (   0.2500000   0.4330129   0.0000002), wk =   0.0416667
        k(   24) = (   0.2500000   0.5773506   0.0000002), wk =   0.0416667
        k(   25) = (   0.2500000   0.7216882   0.0000002), wk =   0.0416667
        k(   26) = (   0.2500000  -0.8660259   0.0000002), wk =   0.0416667
        k(   27) = (   0.2500000  -0.7216882   0.0000002), wk =   0.0416667
        k(   28) = (   0.2500000  -0.5773506   0.0000002), wk =   0.0416667
        k(   29) = (   0.2500000  -0.4330129   0.0000002), wk =   0.0416667
        k(   30) = (   0.2500000  -0.2886753   0.0000002), wk =   0.0416667
        k(   31) = (   0.2500000  -0.1443376   0.0000002), wk =   0.0416667
        k(   32) = (   0.3750000   0.0000000   0.0000002), wk =   0.0416667
        k(   33) = (   0.3750000   0.1443376   0.0000002), wk =   0.0416667
        k(   34) = (   0.3750000   0.2886753   0.0000002), wk =   0.0416667
        k(   35) = (   0.3750000   0.4330129   0.0000002), wk =   0.0416667
        k(   36) = (   0.3750000   0.5773506   0.0000002), wk =   0.0416667
        k(   37) = (   0.3750000   0.7216882   0.0000002), wk =   0.0416667
        k(   38) = (   0.3750000  -0.8660259   0.0000002), wk =   0.0416667
        k(   39) = (   0.3750000  -0.7216882   0.0000002), wk =   0.0416667
        k(   40) = (   0.3750000  -0.5773506   0.0000002), wk =   0.0416667
        k(   41) = (   0.3750000  -0.4330129   0.0000002), wk =   0.0416667
        k(   42) = (   0.3750000  -0.2886753   0.0000002), wk =   0.0416667
        k(   43) = (   0.3750000  -0.1443376   0.0000002), wk =   0.0416667
        k(   44) = (  -0.5000000   0.0000000  -0.0000003), wk =   0.0208333
        k(   45) = (  -0.5000000   0.1443376  -0.0000003), wk =   0.0416667
        k(   46) = (  -0.5000000   0.2886753  -0.0000003), wk =   0.0416667
        k(   47) = (  -0.5000000   0.4330129  -0.0000003), wk =   0.0416667
        k(   48) = (  -0.5000000   0.5773506  -0.0000003), wk =   0.0416667
        k(   49) = (  -0.5000000   0.7216882  -0.0000003), wk =   0.0416667
        k(   50) = (  -0.5000000  -0.8660259  -0.0000003), wk =   0.0208333

     Initial potential from superposition of free atoms

     starting charge     285.9971, renormalised to     286.0000

     negative rho (up, down):  2.479E-03 0.000E+00
     Starting wfcs are  234 randomized atomic wfcs
     Checking if some PAW data can be deallocated...

     Self-consistent Calculation

     iteration #  1     ecut=    50.00 Ry     beta= 0.70
     Davidson diagonalization with overlap
     ethr =  1.00E-02,  avg # of iterations =  5.0

     Threshold (ethr) on eigenvalues was too large:
     Diagonalizing with lowered threshold

     Davidson diagonalization with overlap
     ethr =  3.96E-04,  avg # of iterations =  4.7

     negative rho (up, down):  1.713E-03 0.000E+00

     total energy              =  -20152.81948945 Ry
     estimated scf accuracy    <       1.44409368 Ry

     iteration #  2     ecut=    50.00 Ry     beta= 0.70
     Davidson diagonalization with overlap
     c_bands:  1 eigenvalues not converged
     ethr =  5.05E-04,  avg # of iterations = 16.0

[...]

     End of self-consistent calculation

          k = 0.0000 0.0000 0.0000 ( 23605 PWs)   bands (ev):

     1.5107   1.6528   1.8901   2.1939   2.5560   2.9475   3.3244   3.6282
     3.8187   3.8937   3.9474   3.9502   4.0685   4.0748   4.0776   4.2089
     4.2312   4.2880   4.4112   4.4337   4.5135   4.5451   4.5690   4.6047
     4.6545   4.6921   4.7852   4.8880   4.9865   5.0069   5.1678   5.4394
     5.5662   5.7103   5.7595   5.9698   6.1407   6.1446   6.1774   6.2310
     6.2501   6.2718   6.3125   6.3194   6.3222   6.3346   6.3421   6.3559
     6.3562   6.3777   6.3920   6.4012   6.4066   6.4083   6.4274   6.4406
     6.4429   6.4562   6.4770   6.4863   6.5105   6.5284   6.5365   6.5469
     6.5640   6.5663   6.5780   6.5922   6.6360   6.6540   6.6898   6.7136
     6.7570   6.7693   6.8641   6.8726   6.8726   6.8749   6.8750   7.0423
     7.0861   7.1488   7.1836   7.3030   7.4632   7.4744   7.5398   7.5668
     7.6280   7.6847   7.6864   7.6973   7.7027   7.7245   7.7326   7.7716
     7.7967   7.8169   7.8815   7.8976   7.9041   7.9452   8.0225   8.0266
     8.0268   8.1054   8.1801   8.1983   8.3290   8.3652   8.3861   8.3912
     8.4892   8.5146   8.5333   8.5552   8.5733   8.6114   8.6982   8.7094
     8.7151   8.7254   8.7624   8.7659   8.7736   8.7987   8.8076   8.8248
[...]
     atom    4 type  1   force =     0.01090357    0.01141733   -0.02494067
     atom    5 type  1   force =    -0.00001640   -0.00001641    0.00036491
     atom    6 type  1   force =     0.00000382   -0.00001241    0.00509401
     atom    7 type  1   force =    -0.00008720   -0.00004886    0.00175925
     atom    8 type  1   force =    -0.01077115   -0.01151770    0.02493908
     atom    9 type  1   force =    -0.00000812   -0.00002976   -0.00046137
     atom   10 type  1   force =     0.00007584    0.00000527   -0.00188895
     atom   11 type  1   force =    -0.00001234   -0.00000272   -0.00503447
     atom   12 type  1   force =    -0.00014052    0.00095440    0.00135230
     atom   13 type  1   force =     0.00001432   -0.00091509   -0.00130214
     atom   14 type  1   force =     0.00000661   -0.00001918    0.00508944
     atom   15 type  1   force =    -0.00008182    0.00000996    0.00176991
     atom   16 type  1   force =    -0.01077280   -0.01145870    0.02494078
     atom   17 type  1   force =    -0.00000822   -0.00003056   -0.00046204
     atom   18 type  1   force =     0.00007173   -0.00000102   -0.00189287
     atom   19 type  1   force =    -0.00002026    0.00005737   -0.00504441
     atom   20 type  1   force =    -0.00014329    0.00101479    0.00134986
     atom   21 type  1   force =     0.00002437   -0.00091345   -0.00129876
     atom   22 type  1   force =    -0.00004232    0.00000434   -0.00309368
     atom   23 type  1   force =     0.00002539    0.00002895    0.00322343
     atom   24 type  1   force =     0.00005813    0.00008112   -0.00000011
     atom   25 type  1   force =     0.01090898    0.01141201   -0.02494308
     atom   26 type  1   force =    -0.00002017   -0.00001142    0.00037208

     Total force =     0.051497     Total SCF correction =     0.001660

     BFGS Geometry Optimization
     Energy error            =      0.0E+00 Ry
     Gradient error          =      2.5E-02 Ry/Bohr

     number of scf cycles    =   1
     number of bfgs steps    =   0

     energy             new  =  -20153.4985241223 Ry

     new trust radius        =       0.0249430779 bohr
     new conv_thr            =       0.0000010000 Ry

ATOMIC_POSITIONS (angstrom)
Au            0.0000000000        0.0000000000       -0.0016424313    0   0   1
Au            5.0991277561        0.7360000000       28.8468626122    0   0   1
Au            5.0991339819        0.7360000000       21.6338635742    0   0   1
Au            5.0991389889        0.0000000000       14.4093813184    0   0   1
Au            5.0991452147        0.0000000000        7.2114828060    0   0   1
Au            1.6997150733        0.0000000000        2.4064586558    0   0   1
Au            1.6996977676        0.7360000000       24.0385614415    0   0   1
Au            1.6997039934        0.7360000000       16.8395389177    0   0   1
Au            1.6997090005        0.0000000000        9.6148096354    0   0   1
Au            3.3994301414        0.0000000000        4.8065272748    0   0   1
Au            3.3994129888        0.7360000000       26.4387322635    0   0   1
Au            3.3994189086        0.7360000000       19.2308214053    0   0   1
Au            3.3994248284        0.0000000000       12.0181296829    0   0   1
Au            4.2492909414        1.4719970299        2.4064562323    0   0   1
Au            4.2492725751        2.2079970299       24.0385670818    0   0   1
Au            4.2492788009        2.2079970299       16.8395398166    0   0   1
Au            4.2492850215        1.4719970299        9.6148092826    0   0   1
Au            0.8498539674        1.4719970299        4.8065251979    0   0   1
Au            0.8498368147        2.2079970299       26.4387270028    0   0   1
Au            0.8498428875        2.2079970299       19.2308201182    0   0   1
Au            0.8498488838        1.4719970299       12.0181314697    0   0   1
Au            2.5495761740        1.4719970299       -0.0016371067    0   0   1
Au            2.5495526478        2.2079970299       28.8468644663    0   0   1
Au            2.5495578078        2.2079970299       21.6338681158    0   0   1
Au            2.5495637276        1.4719970299       14.4093800425    0   0   1
Au            2.5495699534        1.4719970299        7.2114866004    0   0   1

     Writing config-only to output data dir ./pwscf.save/
     NEW-OLD atomic charge density approx. for the potential

[...]

     Total force =     0.036022     Total SCF correction =     0.005008
     SCF correction compared to forces is large: reduce conv_thr to get better values
     Energy error            =      1.4E-02 Ry
     Gradient error          =      1.7E-02 Ry/Bohr

[...]

     energy             old  =  -20153.5149093802 Ry
     energy             new  =  -20153.5007618652 Ry

     CASE: energy            _new > energy            _old

[...]

     Total force =     0.010055     Total SCF correction =     0.005781
     SCF correction compared to forces is large: reduce conv_thr to get better values

     BFGS Geometry Optimization
     Energy error            =      0.0E+00 Ry
     Gradient error          =      4.3E-03 Ry/Bohr

[...]

     energy             new  =  -20153.5149094894 Ry

[...]

     CASE: energy            _new < energy            _old

     WARNING: bfgs curvature condition failed, Theta= 0.963
     new trust radius        =       0.0063822960 bohr
     new conv_thr            =       0.0000000100 Ry

[...]

     Total force =     0.007826     Total SCF correction =     0.000377
     Energy error            =      3.1E-06 Ry
     Gradient error          =      3.2E-03 Ry/Bohr

[...]

     Threshold (ethr) on eigenvalues was too large:
     Diagonalizing with lowered threshold

     Davidson diagonalization with overlap
     ethr =  2.99E-08,  avg # of iterations =  3.0

[...]

     Total force =     0.005558     Total SCF correction =     0.000530
     Energy error            =      1.7E-05 Ry
     Gradient error          =      2.3E-03 Ry/Bohr

     number of scf cycles    =   8
     number of bfgs steps    =   6

     energy             old  =  -20153.5150632730 Ry
     energy             new  =  -20153.5150800733 Ry

     CASE: energy            _new < energy            _old

     new trust radius        =       0.0323103733 bohr
     new conv_thr            =       0.0000000100 Ry

ATOMIC_POSITIONS (angstrom)
Au            0.0000000000        0.0000000000       -0.0068170702    0   0   1
Au            5.0991277561       -0.0354811138       28.8536279395    0   0   1
Au            5.0991339819       -0.0354811138       21.6354468862    0   0   1
Au            5.0991389889        0.0000000000       14.4215682814    0   0   1
Au            5.0991452147        0.0000000000        7.2104511852    0   0   1
Au            1.6997150733        0.0000000000        2.4179414730    0   0   1
Au            1.6996977676       -0.0354811138       24.0392158993    0   0   1
Au            1.6997039934       -0.0354811138       16.8251170920    0   0   1
Au            1.6997090005        0.0000000000        9.6132029706    0   0   1
Au            3.3994301414        0.0000000000        4.8060149889    0   0   1
Au            3.3994129888       -0.0354811138       26.4280053913    0   0   1
Au            3.3994189086       -0.0354811138       19.2315339835    0   0   1
Au            3.3994248284        0.0000000000       12.0181769963    0   0   1
Au            4.2492909414        1.4719970299        2.4179148242    0   0   1
Au            4.2492725751        1.4365159161       24.0392065886    0   0   1
Au            4.2492788009        1.4365159161       16.8251206169    0   0   1
Au            4.2492850215        1.4719970299        9.6132154143    0   0   1
Au            0.8498539674        1.4719970299        4.8059856276    0   0   1
Au            0.8498368147        1.4365159161       26.4280533126    0   0   1
Au            0.8498428875        1.4365159161       19.2315416250    0   0   1
Au            0.8498488838        1.4719970299       12.0182222261    0   0   1
Au            2.5495761740        1.4719970299       -0.0067908760    0   0   1
Au            2.5495526478        1.4365159161       28.8536500759    0   0   1
Au            2.5495578078        1.4365159161       21.6354458986    0   0   1
Au            2.5495637276        1.4719970299       14.4215477452    0   0   1
Au            2.5495699534        1.4719970299        7.2104663807    0   0   1

     Writing config-only to output data dir ./pwscf.save/
     NEW-OLD atomic charge density approx. for the potential

[...]

     Self-consistent Calculation

[...]

     iteration #  3     ecut=    50.00 Ry     beta= 0.70
     Davidson diagonalization with overlap
     c_bands:  1 eigenvalues not converged
     c_bands:  1 eigenvalues not converged
     c_bands:  1 eigenvalues not converged
     c_bands:  1 eigenvalues not converged
     c_bands:  1 eigenvalues not converged
     c_bands:  1 eigenvalues not converged
     ethr =  1.30E-06,  avg # of iterations = 17.5

[...]

     total energy              =  -20153.51514337 Ry
     estimated scf accuracy    <       0.00000112 Ry

     iteration # 25     ecut=    50.00 Ry     beta= 0.70
     Davidson diagonalization with overlap
     ethr =  5.26E-12,  avg # of iterations =  1.0

[...]

     End of self-consistent calculation

[...]

          k = 0.3750-0.1443 0.0000 ( 23495 PWs)   bands (ev):

[...]

          k =-0.5000-0.8660-0.0000 ( 23552 PWs)   bands (ev):

     3.9557   3.9606   4.0622   4.0623   4.2053   4.2080   4.2266   4.2307
     4.2836   4.2837   4.4003   4.4012   4.4328   4.4330   4.4887   4.4897
     4.5357   4.5363   4.5627   4.5628   4.6084   4.6099   4.6581   4.6598
     4.6939   4.6959   4.7059   4.7069   4.8838   4.8842   5.0075   5.0077
     5.0298   5.0298   5.1687   5.1688   5.4563   5.4563   5.7432   5.7446
     5.9497   5.9505   6.0593   6.0680   6.1629   6.1632   6.2436   6.2517
     6.3219   6.3220   6.3251   6.3265   6.3345   6.3388   6.4212   6.4215
     6.5658   6.5705   6.7366   6.7401   6.7690   6.7695   6.7830   6.7840
     7.0061   7.0085   7.0580   7.0614   7.1369   7.1379   7.2794   7.2803
     7.4848   7.4861   7.5643   7.5646   7.5737   7.5760   7.8479   7.8486
     7.9498   7.9560   8.0438   8.0456   8.1222   8.1235   8.3755   8.3759
     8.3926   8.3926   8.4883   8.4895   8.5771   8.5785   8.6981   8.6982
     8.7008   8.7062   8.7419   8.7423   8.7934   8.7975   8.8032   8.8035
     8.8162   8.8202   8.8396   8.8404   8.8414   8.8418   8.8606   8.8611
     8.8839   8.8842   8.9084   8.9101   8.9442   8.9442   8.9805   8.9821
     9.0248   9.0248   9.0268   9.0283   9.0655   9.0656   9.2337   9.2339
     9.2344   9.2346  10.1987  10.2090  10.5597  10.5609  10.9298  10.9368
    11.2427  11.2469  11.4725  11.4738  11.6260  11.6298  11.7286  11.7336
    11.8000  11.8018  11.8438  11.8585  11.8890  11.8893  11.9035  11.9356
    12.1292  12.1293  12.1298  12.1299  13.5480  13.5723  13.7359  13.7386
    13.9936  14.0137  14.2802  14.2851  14.5422  14.5562  14.8892  14.8989
    15.3514  15.3697  15.8846  15.9006

     the Fermi energy is    10.7350 ev

!    total energy              =  -20153.51514338 Ry

     total all-electron energy =   -988623.513511 Ry
     estimated scf accuracy    <          1.1E-09 Ry
     smearing contrib. (-TS)   =      -0.00037271 Ry
     internal energy E=F+TS    =  -20153.51477067 Ry

     The total energy is F=E-TS. E is the sum of the following terms:
     one-electron contribution =   -8807.41537003 Ry
     hartree contribution      =    4729.23098633 Ry
     xc contribution           =    -833.58846516 Ry
     ewald contribution        =    2763.58948726 Ry
     one-center paw contrib.   =  -18005.33140907 Ry

     convergence has been achieved in  25 iterations

     negative rho (up, down):  2.003E-03 0.000E+00

     Forces acting on atoms (cartesian axes, Ry/au):

     atom    1 type  1   force =    -0.00003524    0.00006202   -0.00061496
     atom    2 type  1   force =     0.00003610   -0.00002720    0.00055207
     atom    3 type  1   force =     0.00004647   -0.00000961   -0.00005374
     atom    4 type  1   force =     0.00002631   -0.00066353   -0.00003787
     atom    5 type  1   force =    -0.00004496    0.00003517   -0.00018375
     atom    6 type  1   force =     0.00001443    0.00002619    0.00044303
     atom    7 type  1   force =    -0.00008984    0.00000692   -0.00046728
     atom    8 type  1   force =     0.00004529    0.00069516    0.00039302
     atom    9 type  1   force =     0.00000370    0.00003030   -0.00002312
     atom   10 type  1   force =     0.00008968    0.00002993    0.00064915
     atom   11 type  1   force =    -0.00001428   -0.00001194   -0.00042830
     atom   12 type  1   force =    -0.00000977   -0.00006704   -0.00002249
     atom   13 type  1   force =    -0.00007470    0.00007042   -0.00020271
     atom   14 type  1   force =     0.00001672    0.00002891    0.00044523
     atom   15 type  1   force =    -0.00008693   -0.00005133   -0.00045917
     atom   16 type  1   force =     0.00004367    0.00064077    0.00038980
     atom   17 type  1   force =     0.00000921    0.00002795   -0.00002263
     atom   18 type  1   force =     0.00008724    0.00002757    0.00064986
     atom   19 type  1   force =    -0.00001904   -0.00006189   -0.00043099
     atom   20 type  1   force =    -0.00000628   -0.00012446   -0.00002159
     atom   21 type  1   force =    -0.00007126    0.00006832   -0.00020570
     atom   22 type  1   force =    -0.00003336    0.00004379   -0.00061606
     atom   23 type  1   force =     0.00003688   -0.00008226    0.00055042
     atom   24 type  1   force =     0.00004791   -0.00007010   -0.00005481
     atom   25 type  1   force =     0.00003042   -0.00066164   -0.00004184
     atom   26 type  1   force =    -0.00004837    0.00003758   -0.00018557

     Total force =     0.001968     Total SCF correction =     0.000214
     SCF correction compared to forces is large: reduce conv_thr to get better values
     Energy error            =      6.3E-05 Ry
     Gradient error          =      6.5E-04 Ry/Bohr

     bfgs converged in   9 scf cycles and   7 bfgs steps
     (criteria: energy <  1.0E-04 Ry, force <  1.0E-03 Ry/Bohr)

     End of BFGS Geometry Optimization

     Final energy             =  -20153.5151433800 Ry

     File ./pwscf.bfgs deleted, as requested
Begin final coordinates

ATOMIC_POSITIONS (angstrom)
Au            0.0000000000        0.0000000000       -0.0068170702    0   0   1
Au            5.0991277561       -0.0354811138       28.8536279395    0   0   1
Au            5.0991339819       -0.0354811138       21.6354468862    0   0   1
Au            5.0991389889        0.0000000000       14.4215682814    0   0   1
Au            5.0991452147        0.0000000000        7.2104511852    0   0   1
Au            1.6997150733        0.0000000000        2.4179414730    0   0   1
Au            1.6996977676       -0.0354811138       24.0392158993    0   0   1
Au            1.6997039934       -0.0354811138       16.8251170920    0   0   1
Au            1.6997090005        0.0000000000        9.6132029706    0   0   1
Au            3.3994301414        0.0000000000        4.8060149889    0   0   1
Au            3.3994129888       -0.0354811138       26.4280053913    0   0   1
Au            3.3994189086       -0.0354811138       19.2315339835    0   0   1
Au            3.3994248284        0.0000000000       12.0181769963    0   0   1
Au            4.2492909414        1.4719970299        2.4179148242    0   0   1
Au            4.2492725751        1.4365159161       24.0392065886    0   0   1
Au            4.2492788009        1.4365159161       16.8251206169    0   0   1
Au            4.2492850215        1.4719970299        9.6132154143    0   0   1
Au            0.8498539674        1.4719970299        4.8059856276    0   0   1
Au            0.8498368147        1.4365159161       26.4280533126    0   0   1
Au            0.8498428875        1.4365159161       19.2315416250    0   0   1
Au            0.8498488838        1.4719970299       12.0182222261    0   0   1
Au            2.5495761740        1.4719970299       -0.0067908760    0   0   1
Au            2.5495526478        1.4365159161       28.8536500759    0   0   1
Au            2.5495578078        1.4365159161       21.6354458986    0   0   1
Au            2.5495637276        1.4719970299       14.4215477452    0   0   1
Au            2.5495699534        1.4719970299        7.2104663807    0   0   1
End final coordinates

     Writing all to output data dir ./pwscf.save/

     General routines

     Parallel routines

   This run was terminated on:  21:54:10  14Feb2024

   JOB DONE.