     Program PWSCF v.7.0 starts on 18Feb2024 at 14:59:37

     R & G space division:  proc/nbgrp/npool/nimage =      10

     Reading input from GSF111R_0.15.in
Warning: card &CELL ignored
Warning: card / ignored

     Current dimensions of program PWSCF are:
     Max number of different atomic species (ntypx) = 10
     Max number of k-points (npk) =  40000
     Max angular momentum in pseudopotentials (lmaxx) =  4
     file Au.pbe-n-kjpaw_psl.1.0.0.UPF: wavefunction(s)  6S 5D renormalized
     Found identity + ( -0.5000  0.5000  0.0000) symmetry
     This is a supercell, fractional translations are disabled

     Using Slab Decomposition

     bravais-lattice index     =            0
     lattice parameter (alat)  =       9.6360  a.u.
     unit-cell volume          =    3935.2145 (a.u.)^3
     number of atoms/cell      =           26
     number of atomic types    =            1
     number of electrons       =       286.00
     number of Kohn-Sham states=          172
     kinetic-energy cutoff     =      50.0000  Ry
     charge density cutoff     =     200.0000  Ry
     scf convergence threshold =      1.0E-06
     mixing beta               =       0.0090
     number of iterations used =            8  plain     mixing
     energy convergence thresh.=      1.0E-04
     force convergence thresh. =      1.0E-03
     Exchange-correlation= SLA  PW   PBX  PBC
                           (   1   4   3   4   0   0   0)
     nstep                     =           50

     celldm(1)=   9.635999  celldm(2)=   0.000000  celldm(3)=   0.000000
     celldm(4)=   0.000000  celldm(5)=   0.000000  celldm(6)=   0.000000

     crystal axes: (cart. coord. in units of alat)
               a(1) = (   1.000000   0.000000   0.000000 )
               a(2) = (   0.000000   0.577350   0.000000 )
               a(3) = (  -0.000005   0.000000   7.617966 )

     reciprocal axes: (cart. coord. in units 2 pi/alat)
               b(1) = (  1.000000  0.000000  0.000001 )
               b(2) = (  0.000000  1.732052  0.000000 )
               b(3) = (  0.000000  0.000000  0.131269 )

     PseudoPot. # 1 for Au read from file:
     ./Au.pbe-n-kjpaw_psl.1.0.0.UPF
     MD5 check sum: 4db85c736373c707a97ce4c36c2a9d23
     Pseudo is Projector augmented-wave + core cor, Zval = 11.0
     Generated using &quot;atomic&quot; code by A. Dal Corso  v.6.3
     Shape of augmentation charge: PSQ
     Using radial grid of 1279 points,  6 beta functions with:
                l(1) =   0
                l(2) =   0
                l(3) =   1
                l(4) =   1
                l(5) =   2
                l(6) =   2
     Q(r) pseudized with 0 coefficients

     atomic species   valence    mass     pseudopotential
        Au            11.00   196.96657     Au( 1.00)

     No symmetry found

   Cartesian axes

     site n.     atom                  positions (alat units)
         1           Au  tau(   1) = (   0.0000000   0.0000000   0.0000000  )
         2           Au  tau(   2) = (   0.9999954   0.0866026   5.6568550  )
         3           Au  tau(   3) = (   0.9999966   0.0866026   4.2426411  )
         4           Au  tau(   4) = (   0.9999976   0.0000000   2.8284275  )
         5           Au  tau(   5) = (   0.9999988   0.0000000   1.4142138  )
         6           Au  tau(   6) = (   0.3333329   0.0000000   0.4714045  )
         7           Au  tau(   7) = (   0.3333296   0.0866026   4.7140455  )
         8           Au  tau(   8) = (   0.3333308   0.0866026   3.2998319  )
         9           Au  tau(   9) = (   0.3333318   0.0000000   1.8856185  )
        10           Au  tau(  10) = (   0.6666659   0.0000000   0.9428093  )
        11           Au  tau(  11) = (   0.6666625   0.0866026   5.1854506  )
        12           Au  tau(  12) = (   0.6666637   0.0866026   3.7712367  )
        13           Au  tau(  13) = (   0.6666649   0.0000000   2.3570234  )
        14           Au  tau(  14) = (   0.8333330   0.2886749   0.4714045  )
        15           Au  tau(  15) = (   0.8333294   0.3752776   4.7140455  )
        16           Au  tau(  16) = (   0.8333306   0.3752776   3.2998319  )
        17           Au  tau(  17) = (   0.8333318   0.2886749   1.8856185  )
        18           Au  tau(  18) = (   0.1666658   0.2886749   0.9428093  )
        19           Au  tau(  19) = (   0.1666624   0.3752776   5.1854506  )
        20           Au  tau(  20) = (   0.1666636   0.3752776   3.7712367  )
        21           Au  tau(  21) = (   0.1666648   0.2886749   2.3570234  )
        22           Au  tau(  22) = (   0.5000001   0.2886749   0.0000000  )
        23           Au  tau(  23) = (   0.4999955   0.3752776   5.6568550  )
        24           Au  tau(  24) = (   0.4999965   0.3752776   4.2426411  )
        25           Au  tau(  25) = (   0.4999977   0.2886749   2.8284275  )
        26           Au  tau(  26) = (   0.4999989   0.2886749   1.4142138  )

     number of k points=    50  Gaussian smearing, width (Ry)=  0.0080
                       cart. coord. in units 2pi/alat
        k(    1) = (   0.0000000   0.0000000   0.0000000), wk =   0.0208333
        k(    2) = (   0.0000000   0.1443376   0.0000000), wk =   0.0416667
        k(    3) = (   0.0000000   0.2886753   0.0000000), wk =   0.0416667
        k(    4) = (   0.0000000   0.4330129   0.0000000), wk =   0.0416667
        k(    5) = (   0.0000000   0.5773506   0.0000000), wk =   0.0416667
        k(    6) = (   0.0000000   0.7216882   0.0000000), wk =   0.0416667
        k(    7) = (   0.0000000  -0.8660259   0.0000000), wk =   0.0208333
        k(    8) = (   0.1250000   0.0000000   0.0000001), wk =   0.0416667
        k(    9) = (   0.1250000   0.1443376   0.0000001), wk =   0.0416667
        k(   10) = (   0.1250000   0.2886753   0.0000001), wk =   0.0416667
        k(   11) = (   0.1250000   0.4330129   0.0000001), wk =   0.0416667
        k(   12) = (   0.1250000   0.5773506   0.0000001), wk =   0.0416667
        k(   13) = (   0.1250000   0.7216882   0.0000001), wk =   0.0416667
        k(   14) = (   0.1250000  -0.8660259   0.0000001), wk =   0.0416667
        k(   15) = (   0.1250000  -0.7216882   0.0000001), wk =   0.0416667
        k(   16) = (   0.1250000  -0.5773506   0.0000001), wk =   0.0416667
        k(   17) = (   0.1250000  -0.4330129   0.0000001), wk =   0.0416667
        k(   18) = (   0.1250000  -0.2886753   0.0000001), wk =   0.0416667
        k(   19) = (   0.1250000  -0.1443376   0.0000001), wk =   0.0416667
        k(   20) = (   0.2500000   0.0000000   0.0000002), wk =   0.0416667
        k(   21) = (   0.2500000   0.1443376   0.0000002), wk =   0.0416667
        k(   22) = (   0.2500000   0.2886753   0.0000002), wk =   0.0416667
        k(   23) = (   0.2500000   0.4330129   0.0000002), wk =   0.0416667
        k(   24) = (   0.2500000   0.5773506   0.0000002), wk =   0.0416667
        k(   25) = (   0.2500000   0.7216882   0.0000002), wk =   0.0416667
        k(   26) = (   0.2500000  -0.8660259   0.0000002), wk =   0.0416667
        k(   27) = (   0.2500000  -0.7216882   0.0000002), wk =   0.0416667
        k(   28) = (   0.2500000  -0.5773506   0.0000002), wk =   0.0416667
        k(   29) = (   0.2500000  -0.4330129   0.0000002), wk =   0.0416667
        k(   30) = (   0.2500000  -0.2886753   0.0000002), wk =   0.0416667
        k(   31) = (   0.2500000  -0.1443376   0.0000002), wk =   0.0416667
        k(   32) = (   0.3750000   0.0000000   0.0000002), wk =   0.0416667
        k(   33) = (   0.3750000   0.1443376   0.0000002), wk =   0.0416667
        k(   34) = (   0.3750000   0.2886753   0.0000002), wk =   0.0416667
        k(   35) = (   0.3750000   0.4330129   0.0000002), wk =   0.0416667
        k(   36) = (   0.3750000   0.5773506   0.0000002), wk =   0.0416667
        k(   37) = (   0.3750000   0.7216882   0.0000002), wk =   0.0416667
        k(   38) = (   0.3750000  -0.8660259   0.0000002), wk =   0.0416667
        k(   39) = (   0.3750000  -0.7216882   0.0000002), wk =   0.0416667
        k(   40) = (   0.3750000  -0.5773506   0.0000002), wk =   0.0416667
        k(   41) = (   0.3750000  -0.4330129   0.0000002), wk =   0.0416667
        k(   42) = (   0.3750000  -0.2886753   0.0000002), wk =   0.0416667
        k(   43) = (   0.3750000  -0.1443376   0.0000002), wk =   0.0416667
        k(   44) = (  -0.5000000   0.0000000  -0.0000003), wk =   0.0208333
        k(   45) = (  -0.5000000   0.1443376  -0.0000003), wk =   0.0416667
        k(   46) = (  -0.5000000   0.2886753  -0.0000003), wk =   0.0416667
        k(   47) = (  -0.5000000   0.4330129  -0.0000003), wk =   0.0416667
        k(   48) = (  -0.5000000   0.5773506  -0.0000003), wk =   0.0416667
        k(   49) = (  -0.5000000   0.7216882  -0.0000003), wk =   0.0416667
        k(   50) = (  -0.5000000  -0.8660259  -0.0000003), wk =   0.0208333

     Initial potential from superposition of free atoms

     starting charge     285.9971, renormalised to     286.0000

     negative rho (up, down):  2.490E-03 0.000E+00
     Starting wfcs are  234 randomized atomic wfcs
     Checking if some PAW data can be deallocated...

     Self-consistent Calculation

     iteration #  1     ecut=    50.00 Ry     beta= 0.01
     Davidson diagonalization with overlap
     ethr =  1.00E-02,  avg # of iterations =  5.0

     Threshold (ethr) on eigenvalues was too large:
     Diagonalizing with lowered threshold

     Davidson diagonalization with overlap
     ethr =  4.04E-04,  avg # of iterations =  4.7

     negative rho (up, down):  2.477E-03 0.000E+00

     total energy              =  -20153.86064578 Ry
     estimated scf accuracy    <       1.47423402 Ry

[...]

     iteration #  7     ecut=    50.00 Ry     beta= 0.01
     Davidson diagonalization with overlap
     c_bands:  4 eigenvalues not converged
     c_bands:  1 eigenvalues not converged
     ethr =  5.22E-05,  avg # of iterations =  8.3

[...]

     End of self-consistent calculation

          k = 0.0000 0.0000 0.0000 ( 23605 PWs)   bands (ev):

     1.5119   1.6559   1.8890   2.1933   2.5552   2.9470   3.3237   3.6278
     3.8187   3.9001   3.9330   3.9590   4.0722   4.0732   4.0741   4.2124
     4.2357   4.2927   4.4130   4.4333   4.5159   4.5380   4.5732   4.6069
     4.6660   4.7011   4.7290   4.8820   4.9810   5.0013   5.1618   5.4423
     5.7152   5.8447   5.9435   5.9756   6.1478   6.1528   6.1841   6.2366
     6.2554   6.2781   6.3111   6.3212   6.3231   6.3337   6.3497   6.3578
     6.3605   6.3732   6.4006   6.4068   6.4090   6.4120   6.4245   6.4335
     6.4418   6.4637   6.4773   6.4867   6.5012   6.5317   6.5368   6.5458
     6.5613   6.5654   6.5832   6.5916   6.6233   6.6274   6.6839   6.7188
     6.7502   6.7622   6.8395   6.8686   6.8692   6.8698   6.8705   7.0346
     7.0809   7.1448   7.1741   7.2895   7.4565   7.4708   7.5701   7.5931
     7.6151   7.6893   7.6936   7.6990   7.7089   7.7223   7.7409   7.7705
     7.8034   7.8086   7.8722   7.8722   7.9039   7.9553   8.0133   8.0178
     8.0381   8.1134   8.1733   8.1977   8.3087   8.3735   8.3846   8.3910
     8.4804   8.5186   8.5318   8.5637   8.5677   8.6043   8.6990   8.7096
     8.7113   8.7302   8.7621   8.7646   8.7731   8.8045   8.8104   8.8275
[...]
     one-electron contribution =   -8804.19378597 Ry
     hartree contribution      =    4727.61360994 Ry
     xc contribution           =    -833.60099922 Ry
     ewald contribution        =    2762.00844364 Ry
     one-center paw contrib.   =  -18005.33410130 Ry

     convergence has been achieved in  41 iterations

[...]

     Forces acting on atoms (cartesian axes, Ry/au):

     atom    1 type  1   force =    -0.00007668   -0.00003342   -0.00295708
     atom    2 type  1   force =     0.00007316    0.00005904    0.00301970
     atom    3 type  1   force =     0.00008089    0.00004767    0.00038241
     atom    4 type  1   force =     0.00431836    0.00807131   -0.00949507
     atom    5 type  1   force =    -0.00007832    0.00001860   -0.00038544
     atom    6 type  1   force =     0.00007727   -0.00000514    0.00476161
     atom    7 type  1   force =    -0.00003821   -0.00000433    0.00118475
     atom    8 type  1   force =    -0.00427151   -0.00807174    0.00978025
     atom    9 type  1   force =     0.00002140   -0.00001298   -0.00020755
     atom   10 type  1   force =     0.00002660    0.00001283   -0.00119866
     atom   11 type  1   force =    -0.00007863    0.00005433   -0.00472113
     atom   12 type  1   force =    -0.00008731    0.00081658    0.00053380
     atom   13 type  1   force =     0.00002303   -0.00073137   -0.00071023
     atom   14 type  1   force =     0.00007568   -0.00000386    0.00474419
     atom   15 type  1   force =    -0.00002557   -0.00007081    0.00116848
     atom   16 type  1   force =    -0.00426715   -0.00813301    0.00979080
     atom   17 type  1   force =     0.00003701   -0.00001230   -0.00018260
     atom   18 type  1   force =     0.00002792    0.00001991   -0.00119231
     atom   19 type  1   force =    -0.00008614   -0.00000931   -0.00471151
     atom   20 type  1   force =    -0.00007748    0.00073687    0.00053971
     atom   21 type  1   force =     0.00000496   -0.00073976   -0.00070038
     atom   22 type  1   force =    -0.00006581   -0.00004435   -0.00296848
     atom   23 type  1   force =     0.00004716   -0.00001452    0.00302249
     atom   24 type  1   force =     0.00009507   -0.00002865    0.00038226
     atom   25 type  1   force =     0.00431565    0.00807046   -0.00948968
     atom   26 type  1   force =    -0.00007137    0.00000796   -0.00039034

     Total force =     0.022474     Total SCF correction =     0.002405
     SCF correction compared to forces is large: reduce conv_thr to get better values

     BFGS Geometry Optimization
     Energy error            =      0.0E+00 Ry
     Gradient error          =      9.8E-03 Ry/Bohr

     number of scf cycles    =   1
     number of bfgs steps    =   0

     energy             new  =  -20153.5106119371 Ry

     new trust radius        =       0.0097908012 bohr
     new conv_thr            =       0.0000010000 Ry

ATOMIC_POSITIONS (angstrom)
Au            0.0000000000        0.0000000000       -0.0015648205    0   0   1
Au            5.0991277561        0.4416000000       28.8467566586    0   0   1
Au            5.0991339819        0.4416000000       21.6340705371    0   0   1
Au            5.0991389889        0.0000000000       14.4175547787    0   0   1
Au            5.0991452147        0.0000000000        7.2110857368    0   0   1
Au            1.6997150733        0.0000000000        2.4062827532    0   0   1
Au            1.6996977676        0.4416000000       24.0382574285    0   0   1
Au            1.6997039934        0.4416000000       16.8315172072    0   0   1
Au            1.6997090005        0.0000000000        9.6149439542    0   0   1
Au            3.3994301414        0.0000000000        4.8068925561    0   0   1
Au            3.3994129888        0.4416000000       26.4388980759    0   0   1
Au            3.3994189086        0.4416000000       19.2303882756    0   0   1
Au            3.3994248284        0.0000000000       12.0184429076    0   0   1
Au            4.2492909414        1.4719970299        2.4062735347    0   0   1
Au            4.2492725751        1.9135970299       24.0382488171    0   0   1
Au            4.2492788009        1.9135970299       16.8315227916    0   0   1
Au            4.2492850215        1.4719970299        9.6149571536    0   0   1
Au            0.8498539674        1.4719970299        4.8068959212    0   0   1
Au            0.8498368147        1.9135970299       26.4389031670    0   0   1
Au            0.8498428875        1.9135970299       19.2303914044    0   0   1
Au            0.8498488838        1.4719970299       12.0184481217    0   0   1
Au            2.5495761740        1.4719970299       -0.0015708514    0   0   1
Au            2.5495526478        1.9135970299       28.8467581341    0   0   1
Au            2.5495578078        1.9135970299       21.6340704575    0   0   1
Au            2.5495637276        1.4719970299       14.4175576292    0   0   1
Au            2.5495699534        1.4719970299        7.2110831466    0   0   1

     Writing config-only to output data dir ./pwscf.save/
     NEW-OLD atomic charge density approx. for the potential

[...]

     Total force =     0.018301     Total SCF correction =     0.005245
     SCF correction compared to forces is large: reduce conv_thr to get better values
     Energy error            =      4.5E-04 Ry
     Gradient error          =      7.8E-03 Ry/Bohr

[...]

     energy             old  =  -20153.5106119371 Ry
     energy             new  =  -20153.5110658807 Ry

     CASE: energy            _new < energy            _old

     WARNING: bfgs curvature condition failed, Theta= 0.988
     new trust radius        =       0.0107698813 bohr
     new conv_thr            =       0.0000000454 Ry

[...]

     Total force =     0.012928     Total SCF correction =     0.000852
     Energy error            =      3.8E-04 Ry
     Gradient error          =      4.9E-03 Ry/Bohr

[...]

     iteration #  3     ecut=    50.00 Ry     beta= 0.01
     Davidson diagonalization with overlap
     c_bands:  1 eigenvalues not converged
     ethr =  3.98E-08,  avg # of iterations =  1.4

[...]

     Total force =     0.003803     Total SCF correction =     0.000296
     Energy error            =      4.9E-05 Ry
     Gradient error          =      1.4E-03 Ry/Bohr

[...]

     number of scf cycles    =  10
     number of bfgs steps    =   9

     energy             old  =  -20153.5120669635 Ry
     energy             new  =  -20153.5120757969 Ry

     CASE: energy            _new < energy            _old

     new trust radius        =       0.0015729124 bohr
     new conv_thr            =       0.0000000100 Ry

ATOMIC_POSITIONS (angstrom)
Au            0.0000000000        0.0000000000       -0.0124803225    0   0   1
Au            5.0991277561        0.4416000000       28.8577533494    0   0   1
Au            5.0991339819        0.4416000000       21.6434308137    0   0   1
Au            5.0991389889        0.0000000000       14.3960131070    0   0   1
Au            5.0991452147        0.0000000000        7.2077922021    0   0   1
Au            1.6997150733        0.0000000000        2.4203290335    0   0   1
Au            1.6996977676        0.4416000000       24.0358486448    0   0   1
Au            1.6997039934        0.4416000000       16.8541208140    0   0   1
Au            1.6997090005        0.0000000000        9.6053299431    0   0   1
Au            3.3994301414        0.0000000000        4.8107842205    0   0   1
Au            3.3994129888        0.4416000000       26.4249836950    0   0   1
Au            3.3994189086        0.4416000000       19.2521005526    0   0   1
Au            3.3994248284        0.0000000000       11.9974832547    0   0   1
Au            4.2492909414        1.4719970299        2.4203296319    0   0   1
Au            4.2492725751        1.9135970299       24.0358122470    0   0   1
Au            4.2492788009        1.9135970299       16.8541197284    0   0   1
Au            4.2492850215        1.4719970299        9.6053495902    0   0   1
Au            0.8498539674        1.4719970299        4.8107846595    0   0   1
Au            0.8498368147        1.9135970299       26.4250069633    0   0   1
Au            0.8498428875        1.9135970299       19.2520904931    0   0   1
Au            0.8498488838        1.4719970299       11.9975204174    0   0   1
Au            2.5495761740        1.4719970299       -0.0125084483    0   0   1
Au            2.5495526478        1.9135970299       28.8578246904    0   0   1
Au            2.5495578078        1.9135970299       21.6434825780    0   0   1
Au            2.5495637276        1.4719970299       14.3960056778    0   0   1
Au            2.5495699534        1.4719970299        7.2077579400    0   0   1

     Writing config-only to output data dir ./pwscf.save/
     NEW-OLD atomic charge density approx. for the potential

[...]

     Self-consistent Calculation

[...]

     Threshold (ethr) on eigenvalues was too large:
     Diagonalizing with lowered threshold

     Davidson diagonalization with overlap
     ethr =  5.96E-09,  avg # of iterations =  3.0

[...]

     total energy              =  -20153.51208362 Ry
     estimated scf accuracy    <       0.00000002 Ry

     iteration # 17     ecut=    50.00 Ry     beta= 0.01
     Davidson diagonalization with overlap
     ethr =  5.93E-12,  avg # of iterations =  2.6

[...]

     End of self-consistent calculation

[...]

          k = 0.3750-0.1443 0.0000 ( 23495 PWs)   bands (ev):

[...]

          k =-0.5000-0.8660-0.0000 ( 23552 PWs)   bands (ev):

     3.9403   3.9758   4.0371   4.0383   4.1940   4.2124   4.2198   4.2474
     4.2670   4.2794   4.3892   4.3991   4.4393   4.4428   4.4852   4.4926
     4.5237   4.5309   4.5415   4.5421   4.6042   4.6189   4.6554   4.6587
     4.6940   4.7067   4.7364   4.7386   4.8771   4.8825   5.0096   5.0125
     5.0320   5.0326   5.1749   5.1762   5.4473   5.4516   5.7068   5.7390
     5.9177   5.9406   6.0245   6.0849   6.1586   6.1657   6.1980   6.2167
     6.3023   6.3115   6.3177   6.3209   6.3590   6.3753   6.3987   6.4010
     6.5453   6.6117   6.6694   6.7047   6.7669   6.7784   6.8236   6.8457
     7.0065   7.0306   7.0409   7.0642   7.1485   7.1550   7.2805   7.2885
     7.4486   7.4605   7.5661   7.5689   7.5994   7.6304   7.8567   7.8590
     7.8936   7.9536   8.0675   8.0705   8.1121   8.1256   8.3625   8.3677
     8.3835   8.3850   8.4952   8.5041   8.5594   8.5833   8.6695   8.6942
     8.6957   8.7315   8.7363   8.7409   8.7867   8.7900   8.7927   8.7927
     8.8136   8.8234   8.8360   8.8388   8.8472   8.8505   8.8579   8.8637
     8.8839   8.8883   8.9143   8.9168   8.9448   8.9557   8.9703   8.9858
     9.0102   9.0206   9.0250   9.0293   9.0586   9.0799   9.2327   9.2328
     9.2336   9.2336  10.1760  10.2792  10.5346  10.5478  10.9055  10.9856
    11.1891  11.2468  11.4540  11.4586  11.5660  11.6278  11.6835  11.7330
    11.7682  11.7973  11.8289  11.8646  11.8751  11.8836  11.9144  12.1270
    12.1275  12.1278  12.1279  12.3685  13.2804  13.6491  13.7265  13.7593
    13.8854  14.0985  14.2527  14.3127  14.4677  14.6278  14.8421  14.9578
    15.2487  15.4597  15.7958  15.7960

     the Fermi energy is    10.7342 ev

!    total energy              =  -20153.51208352 Ry

     total all-electron energy =   -988623.510451 Ry
     estimated scf accuracy    <          9.3E-09 Ry
     smearing contrib. (-TS)   =      -0.00375888 Ry
     internal energy E=F+TS    =  -20153.50832464 Ry

     The total energy is F=E-TS. E is the sum of the following terms:
     one-electron contribution =   -8785.01351886 Ry
     hartree contribution      =    4718.01521851 Ry
     xc contribution           =    -833.59168069 Ry
     ewald contribution        =    2752.41484174 Ry
     one-center paw contrib.   =  -18005.33318533 Ry

     convergence has been achieved in  17 iterations

     negative rho (up, down):  2.267E-03 0.000E+00

     Forces acting on atoms (cartesian axes, Ry/au):

     atom    1 type  1   force =    -0.00008115   -0.00001716    0.00033703
     atom    2 type  1   force =     0.00007202    0.00004360   -0.00029916
     atom    3 type  1   force =     0.00009148    0.00004199    0.00047711
     atom    4 type  1   force =     0.00310889    0.00586731   -0.00030587
     atom    5 type  1   force =    -0.00007806    0.00000984   -0.00020128
     atom    6 type  1   force =     0.00006818   -0.00000416   -0.00025930
     atom    7 type  1   force =    -0.00004638    0.00000094    0.00072607
     atom    8 type  1   force =    -0.00306408   -0.00586462    0.00034475
     atom    9 type  1   force =     0.00004422   -0.00001066   -0.00082040
     atom   10 type  1   force =     0.00004203    0.00000718   -0.00032249
     atom   11 type  1   force =    -0.00006905    0.00005689    0.00042727
     atom   12 type  1   force =    -0.00008244    0.00072023   -0.00034315
     atom   13 type  1   force =    -0.00001028   -0.00065589    0.00023915
     atom   14 type  1   force =     0.00006678   -0.00000527   -0.00025785
     atom   15 type  1   force =    -0.00003832   -0.00006520    0.00072675
     atom   16 type  1   force =    -0.00306433   -0.00592960    0.00034533
     atom   17 type  1   force =     0.00004690   -0.00000478   -0.00082112
     atom   18 type  1   force =     0.00003690    0.00001350   -0.00032278
     atom   19 type  1   force =    -0.00006625   -0.00001909    0.00042535
     atom   20 type  1   force =    -0.00007627    0.00065550   -0.00034249
     atom   21 type  1   force =    -0.00000760   -0.00065279    0.00023909
     atom   22 type  1   force =    -0.00007405   -0.00001894    0.00033384
     atom   23 type  1   force =     0.00006115   -0.00002964   -0.00029670
     atom   24 type  1   force =     0.00008945   -0.00001993    0.00047563
     atom   25 type  1   force =     0.00310998    0.00586816   -0.00030536
     atom   26 type  1   force =    -0.00007970    0.00001259   -0.00019940

     Total force =     0.002195     Total SCF correction =     0.000444
     SCF correction compared to forces is large: reduce conv_thr to get better values
     Energy error            =      7.7E-06 Ry
     Gradient error          =      8.2E-04 Ry/Bohr

     bfgs converged in  11 scf cycles and  10 bfgs steps
     (criteria: energy <  1.0E-04 Ry, force <  1.0E-03 Ry/Bohr)

     End of BFGS Geometry Optimization

     Final energy             =  -20153.5120835165 Ry

     File ./pwscf.bfgs deleted, as requested
Begin final coordinates

ATOMIC_POSITIONS (angstrom)
Au            0.0000000000        0.0000000000       -0.0124803225    0   0   1
Au            5.0991277561        0.4416000000       28.8577533494    0   0   1
Au            5.0991339819        0.4416000000       21.6434308137    0   0   1
Au            5.0991389889        0.0000000000       14.3960131070    0   0   1
Au            5.0991452147        0.0000000000        7.2077922021    0   0   1
Au            1.6997150733        0.0000000000        2.4203290335    0   0   1
Au            1.6996977676        0.4416000000       24.0358486448    0   0   1
Au            1.6997039934        0.4416000000       16.8541208140    0   0   1
Au            1.6997090005        0.0000000000        9.6053299431    0   0   1
Au            3.3994301414        0.0000000000        4.8107842205    0   0   1
Au            3.3994129888        0.4416000000       26.4249836950    0   0   1
Au            3.3994189086        0.4416000000       19.2521005526    0   0   1
Au            3.3994248284        0.0000000000       11.9974832547    0   0   1
Au            4.2492909414        1.4719970299        2.4203296319    0   0   1
Au            4.2492725751        1.9135970299       24.0358122470    0   0   1
Au            4.2492788009        1.9135970299       16.8541197284    0   0   1
Au            4.2492850215        1.4719970299        9.6053495902    0   0   1
Au            0.8498539674        1.4719970299        4.8107846595    0   0   1
Au            0.8498368147        1.9135970299       26.4250069633    0   0   1
Au            0.8498428875        1.9135970299       19.2520904931    0   0   1
Au            0.8498488838        1.4719970299       11.9975204174    0   0   1
Au            2.5495761740        1.4719970299       -0.0125084483    0   0   1
Au            2.5495526478        1.9135970299       28.8578246904    0   0   1
Au            2.5495578078        1.9135970299       21.6434825780    0   0   1
Au            2.5495637276        1.4719970299       14.3960056778    0   0   1
Au            2.5495699534        1.4719970299        7.2077579400    0   0   1
End final coordinates

     Writing all to output data dir ./pwscf.save/

     General routines

     Parallel routines

   This run was terminated on:  19:33:13  18Feb2024

   JOB DONE.