     Program PWSCF v.7.0 starts on 15Feb2024 at 19:26:50

     R & G space division:  proc/nbgrp/npool/nimage =      10

     Reading input from GSF111_0.0.in
Warning: card &CELL ignored
Warning: card / ignored

     Current dimensions of program PWSCF are:
     Max number of different atomic species (ntypx) = 10
     Max number of k-points (npk) =  40000
     Max angular momentum in pseudopotentials (lmaxx) =  4
     file Au.pbe-n-kjpaw_psl.1.0.0.UPF: wavefunction(s)  6S 5D renormalized
     Found identity + ( -0.5000  0.5000  0.0000) symmetry
     This is a supercell, fractional translations are disabled
     Message from routine setup:
     using ibrav=0 with symmetry is DISCOURAGED, use correct ibrav instead

     Using Slab Decomposition

     bravais-lattice index     =            0
     lattice parameter (alat)  =       9.6360  a.u.
     unit-cell volume          =    3935.2145 (a.u.)^3
     number of atoms/cell      =           26
     number of atomic types    =            1
     number of electrons       =       286.00
     number of Kohn-Sham states=          172
     kinetic-energy cutoff     =      50.0000  Ry
     charge density cutoff     =     200.0000  Ry
     scf convergence threshold =      1.0E-06
     mixing beta               =       0.7000
     number of iterations used =            8  plain     mixing
     Exchange-correlation= SLA  PW   PBX  PBC
                           (   1   4   3   4   0   0   0)

     celldm(1)=   9.635999  celldm(2)=   0.000000  celldm(3)=   0.000000
     celldm(4)=   0.000000  celldm(5)=   0.000000  celldm(6)=   0.000000

     crystal axes: (cart. coord. in units of alat)
               a(1) = (   1.000000   0.000000   0.000000 )
               a(2) = (   0.000000   0.577350   0.000000 )
               a(3) = (  -0.000005   0.000000   7.617966 )

     reciprocal axes: (cart. coord. in units 2 pi/alat)
               b(1) = (  1.000000  0.000000  0.000001 )
               b(2) = (  0.000000  1.732052  0.000000 )
               b(3) = (  0.000000  0.000000  0.131269 )

     PseudoPot. # 1 for Au read from file:
     ./Au.pbe-n-kjpaw_psl.1.0.0.UPF
     MD5 check sum: 4db85c736373c707a97ce4c36c2a9d23
     Pseudo is Projector augmented-wave + core cor, Zval = 11.0
     Generated using &quot;atomic&quot; code by A. Dal Corso  v.6.3
     Shape of augmentation charge: PSQ
     Using radial grid of 1279 points,  6 beta functions with:
                l(1) =   0
                l(2) =   0
                l(3) =   1
                l(4) =   1
                l(5) =   2
                l(6) =   2
     Q(r) pseudized with 0 coefficients

     atomic species   valence    mass     pseudopotential
        Au            11.00   196.96657     Au( 1.00)

      2 Sym. Ops. (no inversion) found

   Cartesian axes

     site n.     atom                  positions (alat units)
         1           Au  tau(   1) = (   0.0000000   0.0000000   0.0000000  )
         2           Au  tau(   2) = (   0.9999954   0.0000000   5.6568550  )
         3           Au  tau(   3) = (   0.9999966   0.0000000   4.2426411  )
         4           Au  tau(   4) = (   0.9999976   0.0000000   2.8284275  )
         5           Au  tau(   5) = (   0.9999988   0.0000000   1.4142138  )
         6           Au  tau(   6) = (   0.3333329   0.0000000   0.4714045  )
         7           Au  tau(   7) = (   0.3333296   0.0000000   4.7140455  )
         8           Au  tau(   8) = (   0.3333308   0.0000000   3.2998319  )
         9           Au  tau(   9) = (   0.3333318   0.0000000   1.8856185  )
        10           Au  tau(  10) = (   0.6666659   0.0000000   0.9428093  )
        11           Au  tau(  11) = (   0.6666625   0.0000000   5.1854506  )
        12           Au  tau(  12) = (   0.6666637   0.0000000   3.7712367  )
        13           Au  tau(  13) = (   0.6666649   0.0000000   2.3570234  )
        14           Au  tau(  14) = (   0.8333330   0.2886749   0.4714045  )
        15           Au  tau(  15) = (   0.8333294   0.2886749   4.7140455  )
        16           Au  tau(  16) = (   0.8333306   0.2886749   3.2998319  )
        17           Au  tau(  17) = (   0.8333318   0.2886749   1.8856185  )
        18           Au  tau(  18) = (   0.1666658   0.2886749   0.9428093  )
        19           Au  tau(  19) = (   0.1666624   0.2886749   5.1854506  )
        20           Au  tau(  20) = (   0.1666636   0.2886749   3.7712367  )
        21           Au  tau(  21) = (   0.1666648   0.2886749   2.3570234  )
        22           Au  tau(  22) = (   0.5000001   0.2886749   0.0000000  )
        23           Au  tau(  23) = (   0.4999955   0.2886749   5.6568550  )
        24           Au  tau(  24) = (   0.4999965   0.2886749   4.2426411  )
        25           Au  tau(  25) = (   0.4999977   0.2886749   2.8284275  )
        26           Au  tau(  26) = (   0.4999989   0.2886749   1.4142138  )

     number of k points=    35  Gaussian smearing, width (Ry)=  0.0200
                       cart. coord. in units 2pi/alat
        k(    1) = (   0.0000000   0.0000000   0.0000000), wk =   0.0208333
        k(    2) = (   0.0000000   0.1443376   0.0000000), wk =   0.0416667
        k(    3) = (   0.0000000   0.2886753   0.0000000), wk =   0.0416667
        k(    4) = (   0.0000000   0.4330129   0.0000000), wk =   0.0416667
        k(    5) = (   0.0000000   0.5773506   0.0000000), wk =   0.0416667
        k(    6) = (   0.0000000   0.7216882   0.0000000), wk =   0.0416667
        k(    7) = (   0.0000000  -0.8660259   0.0000000), wk =   0.0208333
        k(    8) = (   0.1250000   0.0000000   0.0000001), wk =   0.0416667
        k(    9) = (   0.1250000   0.1443376   0.0000001), wk =   0.0833333
        k(   10) = (   0.1250000   0.2886753   0.0000001), wk =   0.0833333
        k(   11) = (   0.1250000   0.4330129   0.0000001), wk =   0.0833333
        k(   12) = (   0.1250000   0.5773506   0.0000001), wk =   0.0833333
        k(   13) = (   0.1250000   0.7216882   0.0000001), wk =   0.0833333
        k(   14) = (   0.1250000  -0.8660259   0.0000001), wk =   0.0416667
        k(   15) = (   0.2500000   0.0000000   0.0000002), wk =   0.0416667
        k(   16) = (   0.2500000   0.1443376   0.0000002), wk =   0.0833333
        k(   17) = (   0.2500000   0.2886753   0.0000002), wk =   0.0833333
        k(   18) = (   0.2500000   0.4330129   0.0000002), wk =   0.0833333
        k(   19) = (   0.2500000   0.5773506   0.0000002), wk =   0.0833333
        k(   20) = (   0.2500000   0.7216882   0.0000002), wk =   0.0833333
        k(   21) = (   0.2500000  -0.8660259   0.0000002), wk =   0.0416667
        k(   22) = (   0.3750000   0.0000000   0.0000002), wk =   0.0416667
        k(   23) = (   0.3750000   0.1443376   0.0000002), wk =   0.0833333
        k(   24) = (   0.3750000   0.2886753   0.0000002), wk =   0.0833333
        k(   25) = (   0.3750000   0.4330129   0.0000002), wk =   0.0833333
        k(   26) = (   0.3750000   0.5773506   0.0000002), wk =   0.0833333
        k(   27) = (   0.3750000   0.7216882   0.0000002), wk =   0.0833333
        k(   28) = (   0.3750000  -0.8660259   0.0000002), wk =   0.0416667
        k(   29) = (  -0.5000000   0.0000000  -0.0000003), wk =   0.0208333
        k(   30) = (  -0.5000000   0.1443376  -0.0000003), wk =   0.0416667
        k(   31) = (  -0.5000000   0.2886753  -0.0000003), wk =   0.0416667
        k(   32) = (  -0.5000000   0.4330129  -0.0000003), wk =   0.0416667
        k(   33) = (  -0.5000000   0.5773506  -0.0000003), wk =   0.0416667
        k(   34) = (  -0.5000000   0.7216882  -0.0000003), wk =   0.0416667
        k(   35) = (  -0.5000000  -0.8660259  -0.0000003), wk =   0.0208333

     Initial potential from superposition of free atoms

     starting charge     285.9971, renormalised to     286.0000

     negative rho (up, down):  2.179E-03 0.000E+00
     Starting wfcs are  234 randomized atomic wfcs
     Checking if some PAW data can be deallocated...

     Self-consistent Calculation

     iteration #  1     ecut=    50.00 Ry     beta= 0.70
     Davidson diagonalization with overlap
     ethr =  1.00E-02,  avg # of iterations =  4.9

     Threshold (ethr) on eigenvalues was too large:
     Diagonalizing with lowered threshold

     Davidson diagonalization with overlap
     ethr =  4.17E-04,  avg # of iterations =  4.7

     negative rho (up, down):  1.428E-03 0.000E+00

     total energy              =  -20152.79116699 Ry
     estimated scf accuracy    <       1.51194083 Ry

     iteration #  2     ecut=    50.00 Ry     beta= 0.70
     Davidson diagonalization with overlap
     c_bands:  1 eigenvalues not converged
     c_bands:  5 eigenvalues not converged
     ethr =  5.29E-04,  avg # of iterations = 17.1

[...]

     iteration # 12     ecut=    50.00 Ry     beta= 0.70
     Davidson diagonalization with overlap
     c_bands:  1 eigenvalues not converged
     c_bands:  1 eigenvalues not converged
     c_bands:  1 eigenvalues not converged
     ethr =  5.05E-06,  avg # of iterations = 11.4

[...]

     total energy              =  -20153.52618967 Ry
     estimated scf accuracy    <       0.00004263 Ry

     iteration # 28     ecut=    50.00 Ry     beta= 0.70
     Davidson diagonalization with overlap
     ethr =  5.07E-09,  avg # of iterations =  1.0

[...]

     End of self-consistent calculation

          k = 0.0000 0.0000 0.0000 ( 23605 PWs)   bands (ev):

     1.5075   1.6520   1.8836   2.1899   2.5515   2.9430   3.3194   3.6225
     3.8119   3.8964   3.9196   3.9598   4.0673   4.0732   4.0733   4.2080
     4.2323   4.2884   4.4051   4.4283   4.4908   4.5352   4.5676   4.6030
     4.6605   4.6989   4.7027   4.8776   4.9812   5.0025   5.1570   5.4396
     5.7305   5.9426   6.0621   6.1638   6.1640   6.1663   6.2485   6.2488
     6.2515   6.3182   6.3186   6.3194   6.3208   6.3245   6.3363   6.3537
     6.3540   6.3548   6.3555   6.3557   6.4074   6.4074   6.4081   6.4087
     6.4270   6.4725   6.4731   6.4800   6.4801   6.4823   6.5353   6.5357
     6.5512   6.5514   6.5727   6.5849   6.5852   6.5938   6.5942   6.7286
     6.7387   6.7655   6.7788   6.8716   6.8718   6.8721   6.8724   6.9969
     7.0613   7.1337   7.1651   7.2612   7.4879   7.5478   7.5736   7.6696
     7.6699   7.6705   7.6706   7.6976   7.6977   7.7096   7.7102   7.7670
     7.7671   7.7928   7.8413   7.8604   7.8606   7.9508   7.9966   7.9967
     8.0435   8.1248   8.1651   8.1654   8.3458   8.3459   8.3792   8.3887
     8.4853   8.5191   8.5192   8.5627   8.5773   8.6634   8.6637   8.6963
     8.7010   8.7412   8.7590   8.7594   8.7915   8.7918   8.7950   8.8042
     8.8191   8.8363   8.8389   8.8597   8.8819   8.9078   8.9390   8.9759
     9.0209   9.0252   9.0636   9.2216   9.2218   9.4030  10.2039  10.5085
    10.5606  10.6302  10.9318  11.2415  11.4690  11.6245  11.7283  11.7997
    11.8509  11.8891  11.9166  12.1229  12.1231  13.5599  13.7345  13.9318
    14.0023  14.2907  14.5557  14.8671  14.8882  15.0857  15.3534  15.8991
    16.1883  16.3791  16.4692  16.4709

[...]

          k = 0.3750-0.8660 0.0000 ( 23556 PWs)   bands (ev):

[...]

          k =-0.5000 0.0000-0.0000 ( 23442 PWs)   bands (ev):

[...]

          k =-0.5000-0.8660-0.0000 ( 23552 PWs)   bands (ev):

     3.9594   3.9595   4.0670   4.0670   4.2077   4.2078   4.2319   4.2320
     4.2879   4.2880   4.4044   4.4045   4.4281   4.4281   4.4903   4.4903
     4.5342   4.5343   4.5673   4.5674   4.6029   4.6030   4.6594   4.6595
     4.6987   4.6988   4.7021   4.7021   4.8775   4.8776   4.9823   4.9823
     5.0041   5.0042   5.1575   5.1576   5.4399   5.4399   5.7306   5.7307
     5.9425   5.9426   6.0614   6.0614   6.1631   6.1631   6.2477   6.2477
     6.3178   6.3178   6.3240   6.3240   6.3357   6.3357   6.4263   6.4264
     6.5722   6.5723   6.7387   6.7387   6.7653   6.7653   6.7789   6.7789
     6.9969   6.9970   7.0615   7.0616   7.1338   7.1338   7.2611   7.2612
     7.4881   7.4882   7.5476   7.5477   7.5736   7.5737   7.8410   7.8411
     7.9509   7.9509   8.0434   8.0435   8.1248   8.1249   8.3794   8.3795
     8.3888   8.3889   8.4852   8.4853   8.5776   8.5777   8.6965   8.6966
     8.7013   8.7014   8.7413   8.7414   8.7954   8.7954   8.8046   8.8047
     8.8195   8.8196   8.8364   8.8364   8.8393   8.8394   8.8601   8.8602
     8.8821   8.8822   8.9079   8.9080   8.9391   8.9392   8.9760   8.9761
     9.0209   9.0210   9.0257   9.0258   9.0634   9.0635   9.2212   9.2213
     9.2215   9.2216  10.2045  10.2045  10.5610  10.5610  10.9321  10.9321
    11.2418  11.2418  11.4695  11.4695  11.6249  11.6249  11.7287  11.7287
    11.8000  11.8000  11.8513  11.8513  11.8895  11.8895  11.9170  11.9170
    12.1221  12.1221  12.1223  12.1223  13.5605  13.5605  13.7349  13.7350
    14.0023  14.0023  14.2904  14.2904  14.5555  14.5556  14.8884  14.8884
    15.3537  15.3537  15.8994  15.8995

     the Fermi energy is    10.7342 ev

!    total energy              =  -20153.52618977 Ry

     total all-electron energy =   -988623.524557 Ry
     estimated scf accuracy    <       0.00000095 Ry
     smearing contrib. (-TS)   =      -0.02215595 Ry
     internal energy E=F+TS    =  -20153.50403382 Ry

     The total energy is F=E-TS. E is the sum of the following terms:
     one-electron contribution =   -8803.77264015 Ry
     hartree contribution      =    4727.36408853 Ry
     xc contribution           =    -833.58508264 Ry
     ewald contribution        =    2761.82222384 Ry
     one-center paw contrib.   =  -18005.33262339 Ry

     convergence has been achieved in  28 iterations

     negative rho (up, down):  1.962E-03 0.000E+00

     Forces acting on atoms (cartesian axes, Ry/au):

     atom    1 type  1   force =    -0.00003795    0.00000000   -0.00296873
     atom    2 type  1   force =     0.00004180    0.00000000    0.00253765
     atom    3 type  1   force =     0.00004981    0.00000000    0.00041445
     atom    4 type  1   force =    -0.00000150    0.00000000   -0.00003098
     atom    5 type  1   force =    -0.00005147    0.00000000    0.00058802
     atom    6 type  1   force =     0.00011729    0.00000000    0.00476594
     atom    7 type  1   force =    -0.00003440    0.00000000    0.00159170
     atom    8 type  1   force =     0.00002449    0.00000000   -0.00012174
     atom    9 type  1   force =     0.00002023    0.00000000    0.00010942
     atom   10 type  1   force =     0.00002925    0.00000000   -0.00093817
     atom   11 type  1   force =    -0.00011485    0.00000000   -0.00502007
     atom   12 type  1   force =    -0.00001934    0.00000000   -0.00028825
     atom   13 type  1   force =    -0.00002528    0.00000000   -0.00065818
     atom   14 type  1   force =     0.00012151    0.00000000    0.00475712
     atom   15 type  1   force =    -0.00002764    0.00000000    0.00158471
     atom   16 type  1   force =     0.00002627    0.00000000   -0.00012228
     atom   17 type  1   force =     0.00001912    0.00000000    0.00011170
     atom   18 type  1   force =     0.00002914    0.00000000   -0.00094495
     atom   19 type  1   force =    -0.00012617    0.00000000   -0.00500554
     atom   20 type  1   force =    -0.00001974    0.00000000   -0.00027877
     atom   21 type  1   force =    -0.00001982    0.00000000   -0.00064575
     atom   22 type  1   force =    -0.00003540    0.00000000   -0.00296373
     atom   23 type  1   force =     0.00003564    0.00000000    0.00254579
     atom   24 type  1   force =     0.00005031    0.00000000    0.00041985
     atom   25 type  1   force =     0.00000067    0.00000000   -0.00004058
     atom   26 type  1   force =    -0.00005195    0.00000000    0.00060137

     Total force =     0.011625     Total SCF correction =     0.005714
     SCF correction compared to forces is large: reduce conv_thr to get better values

     Writing all to output data dir ./pwscf.save/

     General routines

     Parallel routines

   This run was terminated on:  19:50:49  15Feb2024

   JOB DONE.