     Program PWSCF v.7.0 starts on 16Feb2024 at  0:39:39

     R & G space division:  proc/nbgrp/npool/nimage =      10

     Reading input from GSF111_0.45.in
Warning: card &CELL ignored
Warning: card / ignored

     Current dimensions of program PWSCF are:
     Max number of different atomic species (ntypx) = 10
     Max number of k-points (npk) =  40000
     Max angular momentum in pseudopotentials (lmaxx) =  4
     file Au.pbe-n-kjpaw_psl.1.0.0.UPF: wavefunction(s)  6S 5D renormalized
     Found identity + ( -0.5000  0.5000  0.0000) symmetry
     This is a supercell, fractional translations are disabled

     Using Slab Decomposition

     bravais-lattice index     =            0
     lattice parameter (alat)  =       9.6360  a.u.
     unit-cell volume          =    3935.2145 (a.u.)^3
     number of atoms/cell      =           26
     number of atomic types    =            1
     number of electrons       =       286.00
     number of Kohn-Sham states=          172
     kinetic-energy cutoff     =      50.0000  Ry
     charge density cutoff     =     200.0000  Ry
     scf convergence threshold =      1.0E-06
     mixing beta               =       0.7000
     number of iterations used =            8  plain     mixing
     Exchange-correlation= SLA  PW   PBX  PBC
                           (   1   4   3   4   0   0   0)

     celldm(1)=   9.635999  celldm(2)=   0.000000  celldm(3)=   0.000000
     celldm(4)=   0.000000  celldm(5)=   0.000000  celldm(6)=   0.000000

     crystal axes: (cart. coord. in units of alat)
               a(1) = (   1.000000   0.000000   0.000000 )
               a(2) = (   0.000000   0.577350   0.000000 )
               a(3) = (  -0.000005   0.000000   7.617966 )

     reciprocal axes: (cart. coord. in units 2 pi/alat)
               b(1) = (  1.000000  0.000000  0.000001 )
               b(2) = (  0.000000  1.732052  0.000000 )
               b(3) = (  0.000000  0.000000  0.131269 )

     PseudoPot. # 1 for Au read from file:
     ./Au.pbe-n-kjpaw_psl.1.0.0.UPF
     MD5 check sum: 4db85c736373c707a97ce4c36c2a9d23
     Pseudo is Projector augmented-wave + core cor, Zval = 11.0
     Generated using &quot;atomic&quot; code by A. Dal Corso  v.6.3
     Shape of augmentation charge: PSQ
     Using radial grid of 1279 points,  6 beta functions with:
                l(1) =   0
                l(2) =   0
                l(3) =   1
                l(4) =   1
                l(5) =   2
                l(6) =   2
     Q(r) pseudized with 0 coefficients

     atomic species   valence    mass     pseudopotential
        Au            11.00   196.96657     Au( 1.00)

     No symmetry found

   Cartesian axes

     site n.     atom                  positions (alat units)
         1           Au  tau(   1) = (   0.0000000   0.0000000   0.0000000  )
         2           Au  tau(   2) = (   0.9999954   0.2598079   5.6568550  )
         3           Au  tau(   3) = (   0.9999966   0.2598079   4.2426411  )
         4           Au  tau(   4) = (   0.9999976   0.0000000   2.8284275  )
         5           Au  tau(   5) = (   0.9999988   0.0000000   1.4142138  )
         6           Au  tau(   6) = (   0.3333329   0.0000000   0.4714045  )
         7           Au  tau(   7) = (   0.3333296   0.2598079   4.7140455  )
         8           Au  tau(   8) = (   0.3333308   0.2598079   3.2998319  )
         9           Au  tau(   9) = (   0.3333318   0.0000000   1.8856185  )
        10           Au  tau(  10) = (   0.6666659   0.0000000   0.9428093  )
        11           Au  tau(  11) = (   0.6666625   0.2598079   5.1854506  )
        12           Au  tau(  12) = (   0.6666637   0.2598079   3.7712367  )
        13           Au  tau(  13) = (   0.6666649   0.0000000   2.3570234  )
        14           Au  tau(  14) = (   0.8333330   0.2886749   0.4714045  )
        15           Au  tau(  15) = (   0.8333294   0.5484829   4.7140455  )
        16           Au  tau(  16) = (   0.8333306   0.5484829   3.2998319  )
        17           Au  tau(  17) = (   0.8333318   0.2886749   1.8856185  )
        18           Au  tau(  18) = (   0.1666658   0.2886749   0.9428093  )
        19           Au  tau(  19) = (   0.1666624   0.5484829   5.1854506  )
        20           Au  tau(  20) = (   0.1666636   0.5484829   3.7712367  )
        21           Au  tau(  21) = (   0.1666648   0.2886749   2.3570234  )
        22           Au  tau(  22) = (   0.5000001   0.2886749   0.0000000  )
        23           Au  tau(  23) = (   0.4999955   0.5484829   5.6568550  )
        24           Au  tau(  24) = (   0.4999965   0.5484829   4.2426411  )
        25           Au  tau(  25) = (   0.4999977   0.2886749   2.8284275  )
        26           Au  tau(  26) = (   0.4999989   0.2886749   1.4142138  )

     number of k points=    50  Gaussian smearing, width (Ry)=  0.0200
                       cart. coord. in units 2pi/alat
        k(    1) = (   0.0000000   0.0000000   0.0000000), wk =   0.0208333
        k(    2) = (   0.0000000   0.1443376   0.0000000), wk =   0.0416667
        k(    3) = (   0.0000000   0.2886753   0.0000000), wk =   0.0416667
        k(    4) = (   0.0000000   0.4330129   0.0000000), wk =   0.0416667
        k(    5) = (   0.0000000   0.5773506   0.0000000), wk =   0.0416667
        k(    6) = (   0.0000000   0.7216882   0.0000000), wk =   0.0416667
        k(    7) = (   0.0000000  -0.8660259   0.0000000), wk =   0.0208333
        k(    8) = (   0.1250000   0.0000000   0.0000001), wk =   0.0416667
        k(    9) = (   0.1250000   0.1443376   0.0000001), wk =   0.0416667
        k(   10) = (   0.1250000   0.2886753   0.0000001), wk =   0.0416667
        k(   11) = (   0.1250000   0.4330129   0.0000001), wk =   0.0416667
        k(   12) = (   0.1250000   0.5773506   0.0000001), wk =   0.0416667
        k(   13) = (   0.1250000   0.7216882   0.0000001), wk =   0.0416667
        k(   14) = (   0.1250000  -0.8660259   0.0000001), wk =   0.0416667
        k(   15) = (   0.2500000   0.0000000   0.0000002), wk =   0.0416667
        k(   16) = (   0.2500000   0.1443376   0.0000002), wk =   0.0416667
        k(   17) = (   0.2500000   0.2886753   0.0000002), wk =   0.0416667
        k(   18) = (   0.2500000   0.4330129   0.0000002), wk =   0.0416667
        k(   19) = (   0.2500000   0.5773506   0.0000002), wk =   0.0416667
        k(   20) = (   0.2500000   0.7216882   0.0000002), wk =   0.0416667
        k(   21) = (   0.2500000  -0.8660259   0.0000002), wk =   0.0416667
        k(   22) = (   0.3750000   0.0000000   0.0000002), wk =   0.0416667
        k(   23) = (   0.3750000   0.1443376   0.0000002), wk =   0.0416667
        k(   24) = (   0.3750000   0.2886753   0.0000002), wk =   0.0416667
        k(   25) = (   0.3750000   0.4330129   0.0000002), wk =   0.0416667
        k(   26) = (   0.3750000   0.5773506   0.0000002), wk =   0.0416667
        k(   27) = (   0.3750000   0.7216882   0.0000002), wk =   0.0416667
        k(   28) = (   0.3750000  -0.8660259   0.0000002), wk =   0.0416667
        k(   29) = (  -0.5000000   0.0000000  -0.0000003), wk =   0.0208333
        k(   30) = (  -0.5000000   0.1443376  -0.0000003), wk =   0.0416667
        k(   31) = (  -0.5000000   0.2886753  -0.0000003), wk =   0.0416667
        k(   32) = (  -0.5000000   0.4330129  -0.0000003), wk =   0.0416667
        k(   33) = (  -0.5000000   0.5773506  -0.0000003), wk =   0.0416667
        k(   34) = (  -0.5000000   0.7216882  -0.0000003), wk =   0.0416667
        k(   35) = (  -0.5000000  -0.8660259  -0.0000003), wk =   0.0208333
        k(   36) = (  -0.1250000   0.1443376  -0.0000001), wk =   0.0416667
        k(   37) = (  -0.1250000   0.2886753  -0.0000001), wk =   0.0416667
        k(   38) = (  -0.1250000   0.4330129  -0.0000001), wk =   0.0416667
        k(   39) = (  -0.1250000   0.5773506  -0.0000001), wk =   0.0416667
        k(   40) = (  -0.1250000   0.7216882  -0.0000001), wk =   0.0416667
        k(   41) = (  -0.2500000   0.1443376  -0.0000002), wk =   0.0416667
        k(   42) = (  -0.2500000   0.2886753  -0.0000002), wk =   0.0416667
        k(   43) = (  -0.2500000   0.4330129  -0.0000002), wk =   0.0416667
        k(   44) = (  -0.2500000   0.5773506  -0.0000002), wk =   0.0416667
        k(   45) = (  -0.2500000   0.7216882  -0.0000002), wk =   0.0416667
        k(   46) = (  -0.3750000   0.1443376  -0.0000002), wk =   0.0416667
        k(   47) = (  -0.3750000   0.2886753  -0.0000002), wk =   0.0416667
        k(   48) = (  -0.3750000   0.4330129  -0.0000002), wk =   0.0416667
        k(   49) = (  -0.3750000   0.5773506  -0.0000002), wk =   0.0416667
        k(   50) = (  -0.3750000   0.7216882  -0.0000002), wk =   0.0416667

     Initial potential from superposition of free atoms

     starting charge     285.9971, renormalised to     286.0000

     negative rho (up, down):  2.402E-03 0.000E+00
     Starting wfcs are  234 randomized atomic wfcs
     Checking if some PAW data can be deallocated...

     Self-consistent Calculation

     iteration #  1     ecut=    50.00 Ry     beta= 0.70
     Davidson diagonalization with overlap
     ethr =  1.00E-02,  avg # of iterations =  5.1

     Threshold (ethr) on eigenvalues was too large:
     Diagonalizing with lowered threshold

     Davidson diagonalization with overlap
     ethr =  3.97E-04,  avg # of iterations =  4.0

     negative rho (up, down):  1.673E-03 0.000E+00

     total energy              =  -20152.80969455 Ry
     estimated scf accuracy    <       1.44715771 Ry

     iteration #  2     ecut=    50.00 Ry     beta= 0.70
     Davidson diagonalization with overlap
     c_bands:  1 eigenvalues not converged
     ethr =  5.06E-04,  avg # of iterations = 15.3

[...]

     iteration # 18     ecut=    50.00 Ry     beta= 0.70
     Davidson diagonalization with overlap
     c_bands:  1 eigenvalues not converged
     c_bands:  1 eigenvalues not converged
     c_bands:  1 eigenvalues not converged
     ethr =  2.58E-07,  avg # of iterations = 10.2

[...]

     total energy              =  -20153.48995444 Ry
     estimated scf accuracy    <       0.00002076 Ry

     iteration # 34     ecut=    50.00 Ry     beta= 0.70
     Davidson diagonalization with overlap
     ethr =  3.50E-10,  avg # of iterations =  1.0

[...]

     End of self-consistent calculation

          k = 0.0000 0.0000 0.0000 ( 23605 PWs)   bands (ev):

     1.5126   1.6480   1.8897   2.1897   2.5582   2.9480   3.3247   3.6245
     3.8211   3.8865   3.9243   4.0030   4.0616   4.0658   4.0693   4.2059
     4.2155   4.2798   4.3981   4.4263   4.4653   4.5503   4.5561   4.5987
     4.6331   4.6774   4.8431   4.9332   4.9915   5.0422   5.2090   5.3088
     5.4102   5.4485   5.7465   5.9796   6.1426   6.1679   6.1840   6.2258
     6.2474   6.2651   6.3026   6.3126   6.3248   6.3264   6.3335   6.3412
     6.3498   6.3511   6.3679   6.3861   6.4025   6.4068   6.4166   6.4226
     6.4336   6.4650   6.4706   6.4730   6.5094   6.5159   6.5345   6.5450
     6.5556   6.5575   6.5647   6.5842   6.5929   6.6292   6.6329   6.6963
     6.7383   6.7606   6.8647   6.8652   6.8682   6.8684   6.9050   6.9981
     7.0521   7.1375   7.1666   7.2589   7.4870   7.5462   7.6244   7.6562
     7.6608   7.6783   7.6824   7.6925   7.6972   7.7072   7.7279   7.7508
     7.7653   7.8419   7.8436   7.8618   7.8949   7.9438   7.9967   8.0236
     8.0418   8.1244   8.1628   8.1850   8.3103   8.3490   8.3758   8.3870
     8.5089   8.5163   8.5570   8.5688   8.5773   8.6700   8.6912   8.6943
     8.7063   8.7425   8.7533   8.7573   8.7808   8.7945   8.7956   8.8034
     8.8238   8.8319   8.8410   8.8602   8.8826   8.9075   8.9376   8.9768
     9.0157   9.0666   9.1194   9.2147   9.2179   9.4229  10.2108  10.5105
    10.5693  10.6284  10.9368  11.2576  11.4724  11.6290  11.7298  11.7893
    11.8567  11.8774  11.9448  12.1155  12.1186  13.5122  13.7308  13.9721
    14.0268  14.2883  14.5409  14.8673  14.8878  15.0771  15.3447  15.8998
    16.2734  16.4146  16.4644  16.4699

[...]

          k = 0.3750-0.8660 0.0000 ( 23556 PWs)   bands (ev):

[...]

          k =-0.5000 0.0000-0.0000 ( 23442 PWs)   bands (ev):

[...]

          k =-0.3750 0.7217-0.0000 ( 23544 PWs)   bands (ev):

     3.9368   4.0317   4.1571   4.1753   4.2023   4.2963   4.3346   4.3741
     4.3846   4.3942   4.4935   4.4975   4.5010   4.5171   4.5890   4.6379
     4.6602   4.6670   4.6885   4.6929   4.7016   4.7079   4.7694   4.8105
     4.8231   4.8641   4.8927   4.9345   4.9832   5.0273   5.0585   5.0741
     5.1543   5.1865   5.2047   5.2543   5.3767   5.3917   5.5914   5.6289
     5.8204   5.8440   5.9771   6.0508   6.0819   6.0951   6.1442   6.1614
     6.2531   6.2593   6.3364   6.3683   6.3821   6.4130   6.4556   6.4612
     6.4999   6.5059   6.6033   6.6786   6.6954   6.7432   6.7573   6.7647
     6.8803   6.8937   6.9544   7.0308   7.0397   7.0821   7.1793   7.1876
     7.3194   7.3367   7.4113   7.4635   7.4874   7.5060   7.6557   7.6688
     7.7283   7.7609   7.8046   7.9098   7.9640   7.9834   8.0473   8.0706
     8.0795   8.2160   8.2709   8.3034   8.3110   8.3359   8.3761   8.3973
     8.4355   8.4412   8.5103   8.5151   8.5372   8.5545   8.5706   8.5829
     8.5992   8.6042   8.6067   8.6300   8.6565   8.6647   8.6728   8.6919
     8.6971   8.7118   8.7195   8.7247   8.7467   8.7489   8.7698   8.7834
     8.8126   8.8687   8.8722   8.8846   8.9295   8.9805   8.9920   9.0072
     9.0339   9.0821   9.1157   9.1211   9.3573   9.4891   9.5814   9.7695
    10.2176  10.7935  10.8330  10.8623  11.0523  11.1946  11.3748  11.5865
    11.6127  11.9264  12.2766  12.2862  12.5851  12.7057  12.7777  12.9978
    13.0442  13.1045  13.7641  13.8197  13.9101  14.2696  14.3681  14.3735
    14.4757  14.5342  14.7107  14.7579  14.9953  15.0226  15.1282  15.3806
    15.5127  15.9240  15.9869  16.3093

     the Fermi energy is    10.7269 ev

!    total energy              =  -20153.48995407 Ry

     total all-electron energy =   -988623.488321 Ry
     estimated scf accuracy    <       0.00000074 Ry
     smearing contrib. (-TS)   =      -0.02237065 Ry
     internal energy E=F+TS    =  -20153.46758342 Ry

     The total energy is F=E-TS. E is the sum of the following terms:
     one-electron contribution =   -8805.44307291 Ry
     hartree contribution      =    4728.24855252 Ry
     xc contribution           =    -833.64386146 Ry
     ewald contribution        =    2762.72086865 Ry
     one-center paw contrib.   =  -18005.35007022 Ry

     convergence has been achieved in  34 iterations

     negative rho (up, down):  2.282E-03 0.000E+00

     Forces acting on atoms (cartesian axes, Ry/au):

     atom    1 type  1   force =    -0.00003037    0.00001868   -0.00335293
     atom    2 type  1   force =     0.00000756   -0.00005283    0.00361344
     atom    3 type  1   force =     0.00008821   -0.00001741    0.00093764
     atom    4 type  1   force =     0.02274894    0.00439845   -0.05414765
     atom    5 type  1   force =     0.00000225   -0.00000817   -0.00048419
     atom    6 type  1   force =     0.00012460    0.00001178    0.00440614
     atom    7 type  1   force =    -0.00007423   -0.00004514    0.00155955
     atom    8 type  1   force =    -0.02271062   -0.00443635    0.05396415
     atom    9 type  1   force =    -0.00002668   -0.00000207   -0.00058281
     atom   10 type  1   force =     0.00005116    0.00000780   -0.00154369
     atom   11 type  1   force =    -0.00014734   -0.00003119   -0.00420222
     atom   12 type  1   force =    -0.00023907    0.00027400    0.00191698
     atom   13 type  1   force =     0.00019938   -0.00029830   -0.00209425
     atom   14 type  1   force =     0.00012023    0.00000816    0.00441310
     atom   15 type  1   force =    -0.00007428    0.00001990    0.00155746
     atom   16 type  1   force =    -0.02270716   -0.00437189    0.05396132
     atom   17 type  1   force =    -0.00002306   -0.00000377   -0.00057951
     atom   18 type  1   force =     0.00004499    0.00000411   -0.00154961
     atom   19 type  1   force =    -0.00014212    0.00002709   -0.00419814
     atom   20 type  1   force =    -0.00023768    0.00033504    0.00192256
     atom   21 type  1   force =     0.00020056   -0.00030036   -0.00208366
     atom   22 type  1   force =    -0.00002666    0.00001190   -0.00334293
     atom   23 type  1   force =     0.00001379    0.00001896    0.00362149
     atom   24 type  1   force =     0.00009207    0.00004724    0.00094020
     atom   25 type  1   force =     0.02274760    0.00439753   -0.05415820
     atom   26 type  1   force =    -0.00000206   -0.00001314   -0.00049425

     Total force =     0.118258     Total SCF correction =     0.005752

     Writing all to output data dir ./pwscf.save/

     General routines

     Parallel routines

   This run was terminated on:   1:19:19  16Feb2024

   JOB DONE.