     Program PWSCF v.7.0 starts on 15Feb2024 at 22:44: 5

     R & G space division:  proc/nbgrp/npool/nimage =      10

     Reading input from GSF111_0.3.in
Warning: card &CELL ignored
Warning: card / ignored

     Current dimensions of program PWSCF are:
     Max number of different atomic species (ntypx) = 10
     Max number of k-points (npk) =  40000
     Max angular momentum in pseudopotentials (lmaxx) =  4

     File ./pwscf.bfgs deleted, as requested
     file Au.pbe-n-kjpaw_psl.1.0.0.UPF: wavefunction(s)  6S 5D renormalized
     Found identity + ( -0.5000  0.5000  0.0000) symmetry
     This is a supercell, fractional translations are disabled

     Using Slab Decomposition

     bravais-lattice index     =            0
     lattice parameter (alat)  =       9.6360  a.u.
     unit-cell volume          =    3935.2145 (a.u.)^3
     number of atoms/cell      =           26
     number of atomic types    =            1
     number of electrons       =       286.00
     number of Kohn-Sham states=          172
     kinetic-energy cutoff     =      50.0000  Ry
     charge density cutoff     =     200.0000  Ry
     scf convergence threshold =      1.0E-06
     mixing beta               =       0.7000
     number of iterations used =            8  plain     mixing
     Exchange-correlation= SLA  PW   PBX  PBC
                           (   1   4   3   4   0   0   0)

     celldm(1)=   9.635999  celldm(2)=   0.000000  celldm(3)=   0.000000
     celldm(4)=   0.000000  celldm(5)=   0.000000  celldm(6)=   0.000000

     crystal axes: (cart. coord. in units of alat)
               a(1) = (   1.000000   0.000000   0.000000 )
               a(2) = (   0.000000   0.577350   0.000000 )
               a(3) = (  -0.000005   0.000000   7.617966 )

     reciprocal axes: (cart. coord. in units 2 pi/alat)
               b(1) = (  1.000000  0.000000  0.000001 )
               b(2) = (  0.000000  1.732052  0.000000 )
               b(3) = (  0.000000  0.000000  0.131269 )

     PseudoPot. # 1 for Au read from file:
     ./Au.pbe-n-kjpaw_psl.1.0.0.UPF
     MD5 check sum: 4db85c736373c707a97ce4c36c2a9d23
     Pseudo is Projector augmented-wave + core cor, Zval = 11.0
     Generated using &quot;atomic&quot; code by A. Dal Corso  v.6.3
     Shape of augmentation charge: PSQ
     Using radial grid of 1279 points,  6 beta functions with:
                l(1) =   0
                l(2) =   0
                l(3) =   1
                l(4) =   1
                l(5) =   2
                l(6) =   2
     Q(r) pseudized with 0 coefficients

     atomic species   valence    mass     pseudopotential
        Au            11.00   196.96657     Au( 1.00)

     No symmetry found

   Cartesian axes

     site n.     atom                  positions (alat units)
         1           Au  tau(   1) = (   0.0000000   0.0000000   0.0000000  )
         2           Au  tau(   2) = (   0.9999954   0.1732053   5.6568550  )
         3           Au  tau(   3) = (   0.9999966   0.1732053   4.2426411  )
         4           Au  tau(   4) = (   0.9999976   0.0000000   2.8284275  )
         5           Au  tau(   5) = (   0.9999988   0.0000000   1.4142138  )
         6           Au  tau(   6) = (   0.3333329   0.0000000   0.4714045  )
         7           Au  tau(   7) = (   0.3333296   0.1732053   4.7140455  )
         8           Au  tau(   8) = (   0.3333308   0.1732053   3.2998319  )
         9           Au  tau(   9) = (   0.3333318   0.0000000   1.8856185  )
        10           Au  tau(  10) = (   0.6666659   0.0000000   0.9428093  )
        11           Au  tau(  11) = (   0.6666625   0.1732053   5.1854506  )
        12           Au  tau(  12) = (   0.6666637   0.1732053   3.7712367  )
        13           Au  tau(  13) = (   0.6666649   0.0000000   2.3570234  )
        14           Au  tau(  14) = (   0.8333330   0.2886749   0.4714045  )
        15           Au  tau(  15) = (   0.8333294   0.4618802   4.7140455  )
        16           Au  tau(  16) = (   0.8333306   0.4618802   3.2998319  )
        17           Au  tau(  17) = (   0.8333318   0.2886749   1.8856185  )
        18           Au  tau(  18) = (   0.1666658   0.2886749   0.9428093  )
        19           Au  tau(  19) = (   0.1666624   0.4618802   5.1854506  )
        20           Au  tau(  20) = (   0.1666636   0.4618802   3.7712367  )
        21           Au  tau(  21) = (   0.1666648   0.2886749   2.3570234  )
        22           Au  tau(  22) = (   0.5000001   0.2886749   0.0000000  )
        23           Au  tau(  23) = (   0.4999955   0.4618802   5.6568550  )
        24           Au  tau(  24) = (   0.4999965   0.4618802   4.2426411  )
        25           Au  tau(  25) = (   0.4999977   0.2886749   2.8284275  )
        26           Au  tau(  26) = (   0.4999989   0.2886749   1.4142138  )

     number of k points=    50  Gaussian smearing, width (Ry)=  0.0200
                       cart. coord. in units 2pi/alat
        k(    1) = (   0.0000000   0.0000000   0.0000000), wk =   0.0208333
        k(    2) = (   0.0000000   0.1443376   0.0000000), wk =   0.0416667
        k(    3) = (   0.0000000   0.2886753   0.0000000), wk =   0.0416667
        k(    4) = (   0.0000000   0.4330129   0.0000000), wk =   0.0416667
        k(    5) = (   0.0000000   0.5773506   0.0000000), wk =   0.0416667
        k(    6) = (   0.0000000   0.7216882   0.0000000), wk =   0.0416667
        k(    7) = (   0.0000000  -0.8660259   0.0000000), wk =   0.0208333
        k(    8) = (   0.1250000   0.0000000   0.0000001), wk =   0.0416667
        k(    9) = (   0.1250000   0.1443376   0.0000001), wk =   0.0416667
        k(   10) = (   0.1250000   0.2886753   0.0000001), wk =   0.0416667
        k(   11) = (   0.1250000   0.4330129   0.0000001), wk =   0.0416667
        k(   12) = (   0.1250000   0.5773506   0.0000001), wk =   0.0416667
        k(   13) = (   0.1250000   0.7216882   0.0000001), wk =   0.0416667
        k(   14) = (   0.1250000  -0.8660259   0.0000001), wk =   0.0416667
        k(   15) = (   0.2500000   0.0000000   0.0000002), wk =   0.0416667
        k(   16) = (   0.2500000   0.1443376   0.0000002), wk =   0.0416667
        k(   17) = (   0.2500000   0.2886753   0.0000002), wk =   0.0416667
        k(   18) = (   0.2500000   0.4330129   0.0000002), wk =   0.0416667
        k(   19) = (   0.2500000   0.5773506   0.0000002), wk =   0.0416667
        k(   20) = (   0.2500000   0.7216882   0.0000002), wk =   0.0416667
        k(   21) = (   0.2500000  -0.8660259   0.0000002), wk =   0.0416667
        k(   22) = (   0.3750000   0.0000000   0.0000002), wk =   0.0416667
        k(   23) = (   0.3750000   0.1443376   0.0000002), wk =   0.0416667
        k(   24) = (   0.3750000   0.2886753   0.0000002), wk =   0.0416667
        k(   25) = (   0.3750000   0.4330129   0.0000002), wk =   0.0416667
        k(   26) = (   0.3750000   0.5773506   0.0000002), wk =   0.0416667
        k(   27) = (   0.3750000   0.7216882   0.0000002), wk =   0.0416667
        k(   28) = (   0.3750000  -0.8660259   0.0000002), wk =   0.0416667
        k(   29) = (  -0.5000000   0.0000000  -0.0000003), wk =   0.0208333
        k(   30) = (  -0.5000000   0.1443376  -0.0000003), wk =   0.0416667
        k(   31) = (  -0.5000000   0.2886753  -0.0000003), wk =   0.0416667
        k(   32) = (  -0.5000000   0.4330129  -0.0000003), wk =   0.0416667
        k(   33) = (  -0.5000000   0.5773506  -0.0000003), wk =   0.0416667
        k(   34) = (  -0.5000000   0.7216882  -0.0000003), wk =   0.0416667
        k(   35) = (  -0.5000000  -0.8660259  -0.0000003), wk =   0.0208333
        k(   36) = (  -0.1250000   0.1443376  -0.0000001), wk =   0.0416667
        k(   37) = (  -0.1250000   0.2886753  -0.0000001), wk =   0.0416667
        k(   38) = (  -0.1250000   0.4330129  -0.0000001), wk =   0.0416667
        k(   39) = (  -0.1250000   0.5773506  -0.0000001), wk =   0.0416667
        k(   40) = (  -0.1250000   0.7216882  -0.0000001), wk =   0.0416667
        k(   41) = (  -0.2500000   0.1443376  -0.0000002), wk =   0.0416667
        k(   42) = (  -0.2500000   0.2886753  -0.0000002), wk =   0.0416667
        k(   43) = (  -0.2500000   0.4330129  -0.0000002), wk =   0.0416667
        k(   44) = (  -0.2500000   0.5773506  -0.0000002), wk =   0.0416667
        k(   45) = (  -0.2500000   0.7216882  -0.0000002), wk =   0.0416667
        k(   46) = (  -0.3750000   0.1443376  -0.0000002), wk =   0.0416667
        k(   47) = (  -0.3750000   0.2886753  -0.0000002), wk =   0.0416667
        k(   48) = (  -0.3750000   0.4330129  -0.0000002), wk =   0.0416667
        k(   49) = (  -0.3750000   0.5773506  -0.0000002), wk =   0.0416667
        k(   50) = (  -0.3750000   0.7216882  -0.0000002), wk =   0.0416667

     Initial potential from superposition of free atoms

     starting charge     285.9971, renormalised to     286.0000

     negative rho (up, down):  2.643E-03 0.000E+00
     Starting wfcs are  234 randomized atomic wfcs
     Checking if some PAW data can be deallocated...

     Self-consistent Calculation

     iteration #  1     ecut=    50.00 Ry     beta= 0.70
     Davidson diagonalization with overlap
     ethr =  1.00E-02,  avg # of iterations =  4.9

     Threshold (ethr) on eigenvalues was too large:
     Diagonalizing with lowered threshold

     Davidson diagonalization with overlap
     ethr =  4.06E-04,  avg # of iterations =  4.6

     negative rho (up, down):  1.859E-03 0.000E+00

     total energy              =  -20152.80067045 Ry
     estimated scf accuracy    <       1.47194164 Ry

[...]

     iteration #  5     ecut=    50.00 Ry     beta= 0.70
     Davidson diagonalization with overlap
     c_bands:  1 eigenvalues not converged
     c_bands:  1 eigenvalues not converged
     c_bands:  1 eigenvalues not converged
     ethr =  5.15E-04,  avg # of iterations = 13.2

[...]

     iteration # 17     ecut=    50.00 Ry     beta= 0.70
     Davidson diagonalization with overlap
     c_bands:  1 eigenvalues not converged
     ethr =  1.87E-06,  avg # of iterations =  6.6

[...]

     total energy              =  -20153.50399032 Ry
     estimated scf accuracy    <       0.00001372 Ry

     iteration # 30     ecut=    50.00 Ry     beta= 0.70
     Davidson diagonalization with overlap
     ethr =  8.35E-10,  avg # of iterations =  1.0

[...]

     End of self-consistent calculation

          k = 0.0000 0.0000 0.0000 ( 23605 PWs)   bands (ev):

     1.5102   1.6497   1.8869   2.1895   2.5555   2.9460   3.3227   3.6244
     3.8193   3.8916   3.9389   3.9621   4.0642   4.0681   4.0705   4.2066
     4.2227   4.2834   4.4040   4.4268   4.4984   4.5453   4.5616   4.6000
     4.6452   4.6834   4.8118   4.8926   4.9850   5.0049   5.1712   5.4287
     5.4785   5.6027   5.7503   5.9685   6.1381   6.1449   6.1762   6.2272
     6.2491   6.2668   6.3041   6.3142   6.3178   6.3309   6.3356   6.3523
     6.3525   6.3782   6.3844   6.3908   6.4027   6.4043   6.4244   6.4319
     6.4358   6.4509   6.4691   6.4789   6.5076   6.5206   6.5339   6.5417
     6.5586   6.5595   6.5740   6.5897   6.6183   6.6553   6.6843   6.6923
     6.7547   6.7655   6.8668   6.8674   6.8692   6.8696   6.8702   7.0397
     7.0747   7.1441   7.1833   7.2891   7.4648   7.5159   7.5269   7.5598
     7.6375   7.6843   7.6847   7.6949   7.6972   7.7198   7.7219   7.7641
     7.7840   7.8208   7.8816   7.8862   7.8949   7.9352   8.0158   8.0245
     8.0271   8.1070   8.1796   8.1840   8.3386   8.3515   8.3798   8.3881
     8.5045   8.5102   8.5273   8.5521   8.5684   8.6292   8.6950   8.6993
     8.7072   8.7263   8.7571   8.7580   8.7735   8.7977   8.8046   8.8111
     8.8215   8.8341   8.8401   8.8611   8.8814   8.9035   8.9369   8.9617
     9.0159   9.0359   9.1208   9.2168   9.2194   9.4158  10.2081  10.5097
    10.5668  10.6288  10.9349  11.2524  11.4711  11.6277  11.7293  11.7924
    11.8550  11.8810  11.9333  12.1180  12.1203  13.5280  13.7325  13.9814
    13.9932  14.2893  14.5455  14.8661  14.8880  15.0583  15.3474  15.9000
    16.2465  16.3973  16.4557  16.4703

[...]

          k = 0.3750-0.8660 0.0000 ( 23556 PWs)   bands (ev):

[...]

          k =-0.5000 0.0000-0.0000 ( 23442 PWs)   bands (ev):

[...]

          k =-0.3750 0.7217-0.0000 ( 23544 PWs)   bands (ev):

     3.9062   4.0466   4.1804   4.1822   4.2122   4.3147   4.3205   4.3734
     4.3967   4.4113   4.4795   4.4935   4.5229   4.5264   4.5686   4.6337
     4.6472   4.6537   4.6829   4.6976   4.7006   4.7198   4.7726   4.8078
     4.8293   4.8661   4.8685   4.9432   4.9781   5.0016   5.0572   5.0793
     5.1625   5.1956   5.2167   5.2541   5.4357   5.4592   5.6075   5.7075
     5.8276   5.8722   5.9605   6.0514   6.0801   6.1131   6.1411   6.2000
     6.2338   6.3021   6.3507   6.3671   6.4054   6.4096   6.4623   6.4638
     6.5063   6.5117   6.5858   6.6910   6.6940   6.7436   6.7504   6.7726
     6.8568   6.8822   6.9490   7.0084   7.0688   7.0984   7.1696   7.1997
     7.2882   7.3124   7.4225   7.4582   7.4806   7.5182   7.6289   7.6535
     7.7124   7.7940   7.8157   7.8814   7.9549   7.9685   8.0269   8.0715
     8.0941   8.2155   8.2614   8.3109   8.3119   8.3447   8.3665   8.3747
     8.4651   8.4757   8.5142   8.5184   8.5408   8.5456   8.5721   8.5812
     8.5875   8.5934   8.6072   8.6246   8.6506   8.6629   8.6644   8.6949
     8.6971   8.7103   8.7277   8.7300   8.7464   8.7540   8.7733   8.8019
     8.8272   8.8701   8.8838   8.8899   8.9432   8.9640   8.9705   8.9871
     9.0260   9.0373   9.0408   9.1463   9.3659   9.5065   9.5842   9.7655
    10.2132  10.7984  10.8315  10.8596  11.0643  11.1796  11.3667  11.5880
    11.5905  11.8979  12.2514  12.2747  12.5287  12.7028  12.7993  13.0085
    13.0555  13.0958  13.7360  13.7591  13.8893  14.2720  14.3381  14.3948
    14.4496  14.5512  14.7257  14.9307  14.9483  15.0775  15.2195  15.3595
    15.5315  15.8612  16.0107  16.3014

     the Fermi energy is    10.7296 ev

!    total energy              =  -20153.50399051 Ry

     total all-electron energy =   -988623.502358 Ry
     estimated scf accuracy    <       0.00000040 Ry
     smearing contrib. (-TS)   =      -0.02240282 Ry
     internal energy E=F+TS    =  -20153.48158769 Ry

     The total energy is F=E-TS. E is the sum of the following terms:
     one-electron contribution =   -8804.82669179 Ry
     hartree contribution      =    4727.89113445 Ry
     xc contribution           =    -833.62271140 Ry
     ewald contribution        =    2762.42029749 Ry
     one-center paw contrib.   =  -18005.34361644 Ry

     convergence has been achieved in  30 iterations

     negative rho (up, down):  2.507E-03 0.000E+00

     Forces acting on atoms (cartesian axes, Ry/au):

     atom    1 type  1   force =    -0.00002502    0.00003576   -0.00331866
     atom    2 type  1   force =     0.00000668   -0.00003771    0.00305111
     atom    3 type  1   force =     0.00007388   -0.00002543    0.00070868
     atom    4 type  1   force =     0.01454757    0.01173473   -0.03324288
     atom    5 type  1   force =    -0.00002443    0.00003522   -0.00035104
     atom    6 type  1   force =     0.00013140    0.00000735    0.00487076
     atom    7 type  1   force =    -0.00006734   -0.00001393    0.00086361
     atom    8 type  1   force =    -0.01451135   -0.01173109    0.03415380
     atom    9 type  1   force =    -0.00000100   -0.00000305   -0.00050433
     atom   10 type  1   force =     0.00005366    0.00000279   -0.00100752
     atom   11 type  1   force =    -0.00014046   -0.00000183   -0.00525754
     atom   12 type  1   force =    -0.00017084    0.00091370    0.00162166
     atom   13 type  1   force =     0.00011825   -0.00091320   -0.00160365
     atom   14 type  1   force =     0.00012849    0.00000689    0.00487978
     atom   15 type  1   force =    -0.00006240   -0.00001989    0.00087485
     atom   16 type  1   force =    -0.01451053   -0.01173312    0.03415596
     atom   17 type  1   force =     0.00000479   -0.00000132   -0.00050584
     atom   18 type  1   force =     0.00005197    0.00000531   -0.00101582
     atom   19 type  1   force =    -0.00014314    0.00000262   -0.00526470
     atom   20 type  1   force =    -0.00016711    0.00091098    0.00162640
     atom   21 type  1   force =     0.00012083   -0.00091348   -0.00159546
     atom   22 type  1   force =    -0.00001151    0.00004151   -0.00330482
     atom   23 type  1   force =     0.00000583   -0.00004745    0.00305055
     atom   24 type  1   force =     0.00007385   -0.00002423    0.00071478
     atom   25 type  1   force =     0.01454576    0.01173664   -0.03325015
     atom   26 type  1   force =    -0.00002785    0.00003223   -0.00034954

     Total force =     0.078112     Total SCF correction =     0.003889

     Writing all to output data dir ./pwscf.save/

     General routines

     Parallel routines

   This run was terminated on:  23:21:28  15Feb2024

   JOB DONE.