     Program PWSCF v.7.0 starts on 15Feb2024 at 19:26:26

     R & G space division:  proc/nbgrp/npool/nimage =      10

     Reading input from GSF111R_0.0.in
Warning: card &CELL ignored
Warning: card / ignored

     Current dimensions of program PWSCF are:
     Max number of different atomic species (ntypx) = 10
     Max number of k-points (npk) =  40000
     Max angular momentum in pseudopotentials (lmaxx) =  4
     file Au.pbe-n-kjpaw_psl.1.0.0.UPF: wavefunction(s)  6S 5D renormalized
     Found identity + ( -0.5000  0.5000  0.0000) symmetry
     This is a supercell, fractional translations are disabled

     Using Slab Decomposition

     bravais-lattice index     =            0
     lattice parameter (alat)  =       9.6360  a.u.
     unit-cell volume          =    3935.2145 (a.u.)^3
     number of atoms/cell      =           26
     number of atomic types    =            1
     number of electrons       =       286.00
     number of Kohn-Sham states=          172
     kinetic-energy cutoff     =      50.0000  Ry
     charge density cutoff     =     200.0000  Ry
     scf convergence threshold =      1.0E-06
     mixing beta               =       0.1000
     number of iterations used =            8  plain     mixing
     energy convergence thresh.=      1.0E-04
     force convergence thresh. =      1.0E-03
     Exchange-correlation= SLA  PW   PBX  PBC
                           (   1   4   3   4   0   0   0)
     nstep                     =           50

     celldm(1)=   9.635999  celldm(2)=   0.000000  celldm(3)=   0.000000
     celldm(4)=   0.000000  celldm(5)=   0.000000  celldm(6)=   0.000000

     crystal axes: (cart. coord. in units of alat)
               a(1) = (   1.000000   0.000000   0.000000 )
               a(2) = (   0.000000   0.577350   0.000000 )
               a(3) = (  -0.000005   0.000000   7.617966 )

     reciprocal axes: (cart. coord. in units 2 pi/alat)
               b(1) = (  1.000000  0.000000  0.000001 )
               b(2) = (  0.000000  1.732052  0.000000 )
               b(3) = (  0.000000  0.000000  0.131269 )

     PseudoPot. # 1 for Au read from file:
     ./Au.pbe-n-kjpaw_psl.1.0.0.UPF
     MD5 check sum: 4db85c736373c707a97ce4c36c2a9d23
     Pseudo is Projector augmented-wave + core cor, Zval = 11.0
     Generated using &quot;atomic&quot; code by A. Dal Corso  v.6.3
     Shape of augmentation charge: PSQ
     Using radial grid of 1279 points,  6 beta functions with:
                l(1) =   0
                l(2) =   0
                l(3) =   1
                l(4) =   1
                l(5) =   2
                l(6) =   2
     Q(r) pseudized with 0 coefficients

     atomic species   valence    mass     pseudopotential
        Au            11.00   196.96657     Au( 1.00)

     No symmetry found

   Cartesian axes

     site n.     atom                  positions (alat units)
         1           Au  tau(   1) = (   0.0000000   0.0000000   0.0000000  )
         2           Au  tau(   2) = (   0.9999954   0.0000000   5.6568550  )
         3           Au  tau(   3) = (   0.9999966   0.0000000   4.2426411  )
         4           Au  tau(   4) = (   0.9999976   0.0000000   2.8284275  )
         5           Au  tau(   5) = (   0.9999988   0.0000000   1.4142138  )
         6           Au  tau(   6) = (   0.3333329   0.0000000   0.4714045  )
         7           Au  tau(   7) = (   0.3333296   0.0000000   4.7140455  )
         8           Au  tau(   8) = (   0.3333308   0.0000000   3.2998319  )
         9           Au  tau(   9) = (   0.3333318   0.0000000   1.8856185  )
        10           Au  tau(  10) = (   0.6666659   0.0000000   0.9428093  )
        11           Au  tau(  11) = (   0.6666625   0.0000000   5.1854506  )
        12           Au  tau(  12) = (   0.6666637   0.0000000   3.7712367  )
        13           Au  tau(  13) = (   0.6666649   0.0000000   2.3570234  )
        14           Au  tau(  14) = (   0.8333330   0.2886749   0.4714045  )
        15           Au  tau(  15) = (   0.8333294   0.2886749   4.7140455  )
        16           Au  tau(  16) = (   0.8333306   0.2886749   3.2998319  )
        17           Au  tau(  17) = (   0.8333318   0.2886749   1.8856185  )
        18           Au  tau(  18) = (   0.1666658   0.2886749   0.9428093  )
        19           Au  tau(  19) = (   0.1666624   0.2886749   5.1854506  )
        20           Au  tau(  20) = (   0.1666636   0.2886749   3.7712367  )
        21           Au  tau(  21) = (   0.1666648   0.2886749   2.3570234  )
        22           Au  tau(  22) = (   0.5000001   0.2886749   0.0000000  )
        23           Au  tau(  23) = (   0.4999955   0.2886749   5.6568550  )
        24           Au  tau(  24) = (   0.4999965   0.2886749   4.2426411  )
        25           Au  tau(  25) = (   0.4999977   0.2886749   2.8284275  )
        26           Au  tau(  26) = (   0.4999989   0.2886749   1.4142138  )

     number of k points=    50  Gaussian smearing, width (Ry)=  0.0020
                       cart. coord. in units 2pi/alat
        k(    1) = (   0.0000000   0.0000000   0.0000000), wk =   0.0208333
        k(    2) = (   0.0000000   0.1443376   0.0000000), wk =   0.0416667
        k(    3) = (   0.0000000   0.2886753   0.0000000), wk =   0.0416667
        k(    4) = (   0.0000000   0.4330129   0.0000000), wk =   0.0416667
        k(    5) = (   0.0000000   0.5773506   0.0000000), wk =   0.0416667
        k(    6) = (   0.0000000   0.7216882   0.0000000), wk =   0.0416667
        k(    7) = (   0.0000000  -0.8660259   0.0000000), wk =   0.0208333
        k(    8) = (   0.1250000   0.0000000   0.0000001), wk =   0.0416667
        k(    9) = (   0.1250000   0.1443376   0.0000001), wk =   0.0416667
        k(   10) = (   0.1250000   0.2886753   0.0000001), wk =   0.0416667
        k(   11) = (   0.1250000   0.4330129   0.0000001), wk =   0.0416667
        k(   12) = (   0.1250000   0.5773506   0.0000001), wk =   0.0416667
        k(   13) = (   0.1250000   0.7216882   0.0000001), wk =   0.0416667
        k(   14) = (   0.1250000  -0.8660259   0.0000001), wk =   0.0416667
        k(   15) = (   0.1250000  -0.7216882   0.0000001), wk =   0.0416667
        k(   16) = (   0.1250000  -0.5773506   0.0000001), wk =   0.0416667
        k(   17) = (   0.1250000  -0.4330129   0.0000001), wk =   0.0416667
        k(   18) = (   0.1250000  -0.2886753   0.0000001), wk =   0.0416667
        k(   19) = (   0.1250000  -0.1443376   0.0000001), wk =   0.0416667
        k(   20) = (   0.2500000   0.0000000   0.0000002), wk =   0.0416667
        k(   21) = (   0.2500000   0.1443376   0.0000002), wk =   0.0416667
        k(   22) = (   0.2500000   0.2886753   0.0000002), wk =   0.0416667
        k(   23) = (   0.2500000   0.4330129   0.0000002), wk =   0.0416667
        k(   24) = (   0.2500000   0.5773506   0.0000002), wk =   0.0416667
        k(   25) = (   0.2500000   0.7216882   0.0000002), wk =   0.0416667
        k(   26) = (   0.2500000  -0.8660259   0.0000002), wk =   0.0416667
        k(   27) = (   0.2500000  -0.7216882   0.0000002), wk =   0.0416667
        k(   28) = (   0.2500000  -0.5773506   0.0000002), wk =   0.0416667
        k(   29) = (   0.2500000  -0.4330129   0.0000002), wk =   0.0416667
        k(   30) = (   0.2500000  -0.2886753   0.0000002), wk =   0.0416667
        k(   31) = (   0.2500000  -0.1443376   0.0000002), wk =   0.0416667
        k(   32) = (   0.3750000   0.0000000   0.0000002), wk =   0.0416667
        k(   33) = (   0.3750000   0.1443376   0.0000002), wk =   0.0416667
        k(   34) = (   0.3750000   0.2886753   0.0000002), wk =   0.0416667
        k(   35) = (   0.3750000   0.4330129   0.0000002), wk =   0.0416667
        k(   36) = (   0.3750000   0.5773506   0.0000002), wk =   0.0416667
        k(   37) = (   0.3750000   0.7216882   0.0000002), wk =   0.0416667
        k(   38) = (   0.3750000  -0.8660259   0.0000002), wk =   0.0416667
        k(   39) = (   0.3750000  -0.7216882   0.0000002), wk =   0.0416667
        k(   40) = (   0.3750000  -0.5773506   0.0000002), wk =   0.0416667
        k(   41) = (   0.3750000  -0.4330129   0.0000002), wk =   0.0416667
        k(   42) = (   0.3750000  -0.2886753   0.0000002), wk =   0.0416667
        k(   43) = (   0.3750000  -0.1443376   0.0000002), wk =   0.0416667
        k(   44) = (  -0.5000000   0.0000000  -0.0000003), wk =   0.0208333
        k(   45) = (  -0.5000000   0.1443376  -0.0000003), wk =   0.0416667
        k(   46) = (  -0.5000000   0.2886753  -0.0000003), wk =   0.0416667
        k(   47) = (  -0.5000000   0.4330129  -0.0000003), wk =   0.0416667
        k(   48) = (  -0.5000000   0.5773506  -0.0000003), wk =   0.0416667
        k(   49) = (  -0.5000000   0.7216882  -0.0000003), wk =   0.0416667
        k(   50) = (  -0.5000000  -0.8660259  -0.0000003), wk =   0.0208333

     Initial potential from superposition of free atoms

     starting charge     285.9971, renormalised to     286.0000

     negative rho (up, down):  2.179E-03 0.000E+00
     Starting wfcs are  234 randomized atomic wfcs
     Checking if some PAW data can be deallocated...

     Self-consistent Calculation

     iteration #  1     ecut=    50.00 Ry     beta= 0.10
     Davidson diagonalization with overlap
     ethr =  1.00E-02,  avg # of iterations =  4.9

     Threshold (ethr) on eigenvalues was too large:
     Diagonalizing with lowered threshold

     Davidson diagonalization with overlap
     ethr =  3.96E-04,  avg # of iterations =  4.6

     negative rho (up, down):  2.046E-03 0.000E+00

     total energy              =  -20153.66808897 Ry
     estimated scf accuracy    <       1.44944647 Ry

[...]

     iteration #  7     ecut=    50.00 Ry     beta= 0.10
     Davidson diagonalization with overlap
     c_bands:  1 eigenvalues not converged
     c_bands:  1 eigenvalues not converged
     c_bands:  4 eigenvalues not converged
     c_bands:  1 eigenvalues not converged
     c_bands:  1 eigenvalues not converged
     c_bands:  1 eigenvalues not converged
     c_bands:  1 eigenvalues not converged
     c_bands:  1 eigenvalues not converged
     c_bands:  1 eigenvalues not converged
     c_bands:  1 eigenvalues not converged
     c_bands:  1 eigenvalues not converged
     c_bands:  1 eigenvalues not converged
     c_bands:  2 eigenvalues not converged
     c_bands:  2 eigenvalues not converged
     ethr =  1.67E-05,  avg # of iterations = 16.3

[...]

     End of self-consistent calculation

          k = 0.0000 0.0000 0.0000 ( 23605 PWs)   bands (ev):

     1.5105   1.6557   1.8878   2.1946   2.5535   2.9455   3.3225   3.6271
     3.8140   3.8995   3.9231   3.9639   4.0721   4.0767   4.0768   4.2118
     4.2382   4.2930   4.4111   4.4353   4.4957   4.5423   4.5734   4.6074
     4.6640   4.7055   4.7079   4.8837   4.9827   5.0038   5.1599   5.4426
     5.7339   5.9476   6.0650   6.1672   6.1688   6.1696   6.2529   6.2539
     6.2556   6.3227   6.3239   6.3240   6.3250   6.3303   6.3409   6.3581
     6.3594   6.3598   6.3601   6.3605   6.4124   6.4129   6.4140   6.4153
     6.4322   6.4805   6.4817   6.4857   6.4861   6.4869   6.5399   6.5408
     6.5588   6.5599   6.5788   6.5894   6.5906   6.5981   6.5993   6.7312
[...]
     atom    6 type  1   force =     0.00001223    0.00000564    0.00519143
     atom    7 type  1   force =    -0.00009025   -0.00000148    0.00180085
     atom    8 type  1   force =     0.00006859   -0.00000373   -0.00001507
     atom    9 type  1   force =     0.00000509   -0.00000579   -0.00033842
     atom   10 type  1   force =     0.00008843    0.00000111   -0.00171520
     atom   11 type  1   force =    -0.00000542   -0.00000440   -0.00504684
     atom   12 type  1   force =    -0.00000642    0.00000242    0.00024291
     atom   13 type  1   force =    -0.00008044   -0.00000482   -0.00011889
     atom   14 type  1   force =     0.00001509    0.00000083    0.00517020
     atom   15 type  1   force =    -0.00008692   -0.00000055    0.00179459
     atom   16 type  1   force =     0.00008050    0.00000375   -0.00001793
     atom   17 type  1   force =     0.00000761    0.00000319   -0.00034120
     atom   18 type  1   force =     0.00007467   -0.00000305   -0.00172184
     atom   19 type  1   force =    -0.00001699   -0.00000088   -0.00504512
     atom   20 type  1   force =    -0.00000534    0.00000128    0.00025627
     atom   21 type  1   force =    -0.00007430   -0.00000087   -0.00009834
     atom   22 type  1   force =    -0.00004260    0.00000288   -0.00315437
     atom   23 type  1   force =     0.00004866   -0.00000035    0.00320646
     atom   24 type  1   force =     0.00004816    0.00000039   -0.00004689
     atom   25 type  1   force =     0.00000192   -0.00000155   -0.00006136
     atom   26 type  1   force =    -0.00005281   -0.00000120    0.00005949

     Total force =     0.012563     Total SCF correction =     0.000502
     Energy error            =      6.0E-04 Ry
     Gradient error          =      5.2E-03 Ry/Bohr

     number of scf cycles    =   4
     number of bfgs steps    =   3

     energy             old  =  -20153.5141648321 Ry
     energy             new  =  -20153.5147697104 Ry

     CASE: energy            _new < energy            _old

     WARNING: unexpected behaviour in update_inverse_hessian
              resetting bfgs history

     new trust radius        =       0.0051914290 bohr
     new conv_thr            =       0.0000000519 Ry

ATOMIC_POSITIONS (angstrom)
Au            0.0000000000        0.0000000000       -0.0016721702    0   0   1
Au            5.0991277561        0.0000000000       28.8468528046    0   0   1
Au            5.0991339819        0.0000000000       21.6338441931    0   0   1
Au            5.0991389889        0.0000000000       14.4225532565    0   0   1
Au            5.0991452147        0.0000000000        7.2113174573    0   0   1
Au            1.6997150733        0.0000000000        2.4065102051    0   0   1
Au            1.6996977676        0.0000000000       24.0385834523    0   0   1
Au            1.6997039934        0.0000000000       16.8263337491    0   0   1
Au            1.6997090005        0.0000000000        9.6148747008    0   0   1
Au            3.3994301414        0.0000000000        4.8066192183    0   0   1
Au            3.3994129888        0.0000000000       26.4387257150    0   0   1
Au            3.3994189086        0.0000000000       19.2302343440    0   0   1
Au            3.3994248284        0.0000000000       12.0187558316    0   0   1
Au            4.2492909414        1.4719970299        2.4064989700    0   0   1
Au            4.2492725751        1.4719970299       24.0385801436    0   0   1
Au            4.2492788009        1.4719970299       16.8263322367    0   0   1
Au            4.2492850215        1.4719970299        9.6148732274    0   0   1
Au            0.8498539674        1.4719970299        4.8066157053    0   0   1
Au            0.8498368147        1.4719970299       26.4387266260    0   0   1
Au            0.8498428875        1.4719970299       19.2302414108    0   0   1
Au            0.8498488838        1.4719970299       12.0187667042    0   0   1
Au            2.5495761740        1.4719970299       -0.0016692181    0   0   1
Au            2.5495526478        1.4719970299       28.8468554884    0   0   1
Au            2.5495578078        1.4719970299       21.6338433595    0   0   1
Au            2.5495637276        1.4719970299       14.4225468798    0   0   1
Au            2.5495699534        1.4719970299        7.2113211857    0   0   1

     Writing config-only to output data dir ./pwscf.save/
     NEW-OLD atomic charge density approx. for the potential

[...]

     WARNING: bfgs curvature condition failed, Theta= 0.934
     new trust radius        =       0.0057105719 bohr
     new conv_thr            =       0.0000000140 Ry

[...]

     iteration # 20     ecut=    50.00 Ry     beta= 0.10
     Davidson diagonalization with overlap
     c_bands:  1 eigenvalues not converged
     ethr =  2.10E-06,  avg # of iterations =  6.4

[...]

     Total force =     0.017868     Total SCF correction =     0.000240

     BFGS Geometry Optimization
     Energy error            =      0.0E+00 Ry
     Gradient error          =      8.9E-03 Ry/Bohr

[...]

     energy             new  =  -20153.5095366117 Ry

[...]

     Total force =     0.004586     Total SCF correction =     0.000233

[...]

     Total force =     0.004136     Total SCF correction =     0.000555
     SCF correction compared to forces is large: reduce conv_thr to get better values
     Energy error            =      1.9E-05 Ry
     Gradient error          =      1.7E-03 Ry/Bohr

[...]

     Total force =     0.003415     Total SCF correction =     0.000393
     SCF correction compared to forces is large: reduce conv_thr to get better values

[...]

     energy             new  =  -20153.5103757298 Ry

[...]

     WARNING: bfgs curvature condition failed, Theta= 0.929
     new trust radius        =       0.0015186593 bohr
     new conv_thr            =       0.0000000100 Ry

[...]

     Total force =     0.002799     Total SCF correction =     0.000555
     SCF correction compared to forces is large: reduce conv_thr to get better values
     Energy error            =      1.1E-05 Ry
     Gradient error          =      1.1E-03 Ry/Bohr

[...]

     Total force =     0.002648     Total SCF correction =     0.000110
     Energy error            =      1.5E-05 Ry
     Gradient error          =      1.0E-03 Ry/Bohr

     number of scf cycles    =   4
     number of bfgs steps    =   3

     energy             old  =  -20153.5103968526 Ry
     energy             new  =  -20153.5104118319 Ry

     CASE: energy            _new < energy            _old

     new trust radius        =       0.0034169834 bohr
     new conv_thr            =       0.0000000100 Ry

ATOMIC_POSITIONS (angstrom)
Au           -0.0000000000        0.0000000000       -0.0113835211    0   0   1
Au            5.0991277561       -0.4233318201       28.8565302851    0   0   1
Au            5.0991339819       -0.4233318201       21.6393422399    0   0   1
Au            5.0991389889        0.0000000000       14.3996142736    0   0   1
Au            5.0991452147        0.0000000000        7.2093849592    0   0   1
Au            1.6997150733        0.0000000000        2.4187938425    0   0   1
Au            1.6996977676       -0.4233318201       24.0379971074    0   0   1
Au            1.6997039934       -0.4233318201       16.8501627850    0   0   1
Au            1.6997090005        0.0000000000        9.6083479320    0   0   1
Au            3.3994301414        0.0000000000        4.8082122376    0   0   1
Au            3.3994129888       -0.4233318201       26.4265821204    0   0   1
Au            3.3994189086       -0.4233318201       19.2452623057    0   0   1
Au            3.3994248284        0.0000000000       12.0046487511    0   0   1
Au            4.2492909414        1.4719970299        2.4187849125    0   0   1
Au            4.2492725751        1.0486652098       24.0379979070    0   0   1
Au            4.2492788009        1.0486652098       16.8501623575    0   0   1
Au            4.2492850215        1.4719970299        9.6083566341    0   0   1
Au            0.8498539674        1.4719970299        4.8082187354    0   0   1
Au            0.8498368147        1.0486652098       26.4265948317    0   0   1
Au            0.8498428875        1.0486652098       19.2452582459    0   0   1
Au            0.8498488838        1.4719970299       12.0046773255    0   0   1
Au            2.5495761740        1.4719970299       -0.0114265548    0   0   1
Au            2.5495526478        1.0486652098       28.8566105368    0   0   1
Au            2.5495578078        1.0486652098       21.6393607977    0   0   1
Au            2.5495637276        1.4719970299       14.3996213073    0   0   1
Au            2.5495699534        1.4719970299        7.2093531213    0   0   1

     Writing config-only to output data dir ./pwscf.save/
     NEW-OLD atomic charge density approx. for the potential

[...]

     Self-consistent Calculation

[...]

     Threshold (ethr) on eigenvalues was too large:
     Diagonalizing with lowered threshold

     Davidson diagonalization with overlap
     ethr =  1.43E-08,  avg # of iterations =  3.0

[...]

     total energy              =  -20153.51043128 Ry
     estimated scf accuracy    <       0.00000003 Ry

     iteration # 10     ecut=    50.00 Ry     beta= 0.10
     Davidson diagonalization with overlap
     ethr =  1.20E-11,  avg # of iterations =  2.0

[...]

     End of self-consistent calculation

[...]

          k = 0.3750-0.1443 0.0000 ( 23495 PWs)   bands (ev):

[...]

          k =-0.5000-0.8660-0.0000 ( 23552 PWs)   bands (ev):

     3.9376   3.9756   4.0425   4.0433   4.1921   4.2117   4.2181   4.2475
     4.2708   4.2800   4.3881   4.3980   4.4378   4.4403   4.4844   4.4917
     4.5236   4.5312   4.5460   4.5469   4.6034   4.6168   4.6509   4.6583
     4.6909   4.6997   4.7322   4.7346   4.8769   4.8822   5.0109   5.0135
     5.0342   5.0343   5.1728   5.1736   5.4481   5.4521   5.7086   5.7401
     5.9203   5.9398   6.0222   6.0813   6.1565   6.1644   6.1965   6.2146
     6.3052   6.3147   6.3202   6.3229   6.3611   6.3764   6.4052   6.4065
     6.5459   6.6075   6.6707   6.7052   6.7657   6.7760   6.8207   6.8424
     7.0055   7.0277   7.0394   7.0645   7.1481   7.1553   7.2804   7.2884
     7.4502   7.4629   7.5657   7.5688   7.5968   7.6260   7.8549   7.8580
     7.8988   7.9566   8.0659   8.0702   8.1113   8.1243   8.3645   8.3700
     8.3838   8.3850   8.4961   8.5046   8.5632   8.5856   8.6716   8.6951
     8.6963   8.7307   8.7362   8.7398   8.7845   8.7892   8.7928   8.7938
     8.8102   8.8219   8.8366   8.8405   8.8465   8.8506   8.8582   8.8625
     8.8828   8.8884   8.9118   8.9162   8.9450   8.9569   8.9680   8.9848
     9.0110   9.0212   9.0244   9.0279   9.0578   9.0781   9.2364   9.2366
     9.2386   9.2389  10.1736  10.2751  10.5376  10.5508  10.9053  10.9815
    11.1910  11.2470  11.4537  11.4596  11.5682  11.6279  11.6828  11.7340
    11.7683  11.7961  11.8274  11.8654  11.8748  11.8823  11.9101  12.1302
    12.1303  12.1315  12.1319  12.3433  13.2969  13.6442  13.7240  13.7562
    13.8891  14.0984  14.2564  14.3148  14.4725  14.6261  14.8445  14.9573
    15.2562  15.4594  15.8014  15.8251

     the Fermi energy is    10.7314 ev

!    total energy              =  -20153.51043104 Ry

     total all-electron energy =   -988623.508798 Ry
     estimated scf accuracy    <          6.6E-09 Ry
     smearing contrib. (-TS)   =      -0.00035764 Ry
     internal energy E=F+TS    =  -20153.51007340 Ry

     The total energy is F=E-TS. E is the sum of the following terms:
     one-electron contribution =   -8789.37773047 Ry
     hartree contribution      =    4720.19902245 Ry
     xc contribution           =    -833.59398505 Ry
     ewald contribution        =    2754.59585830 Ry
     one-center paw contrib.   =  -18005.33323863 Ry

     convergence has been achieved in  10 iterations

     negative rho (up, down):  2.280E-03 0.000E+00

     Forces acting on atoms (cartesian axes, Ry/au):

     atom    1 type  1   force =    -0.00004727    0.00002711   -0.00008061
     atom    2 type  1   force =     0.00004062   -0.00002958    0.00010222
     atom    3 type  1   force =     0.00005358   -0.00004862    0.00064298
     atom    4 type  1   force =     0.00299265   -0.00589920   -0.00032572
     atom    5 type  1   force =    -0.00004020    0.00000192   -0.00026815
     atom    6 type  1   force =     0.00001445    0.00001199    0.00003362
     atom    7 type  1   force =    -0.00007110   -0.00000027    0.00021342
     atom    8 type  1   force =    -0.00291753    0.00592687    0.00038756
     atom    9 type  1   force =     0.00000875    0.00001584   -0.00073789
     atom   10 type  1   force =     0.00006606    0.00000060    0.00000061
     atom   11 type  1   force =    -0.00001175   -0.00003778    0.00005422
     atom   12 type  1   force =    -0.00005879   -0.00070141    0.00082229
     atom   13 type  1   force =    -0.00003646    0.00062790   -0.00084363
     atom   14 type  1   force =     0.00001150    0.00001228    0.00003594
     atom   15 type  1   force =    -0.00006924    0.00003297    0.00021353
     atom   16 type  1   force =    -0.00291706    0.00596298    0.00038751
     atom   17 type  1   force =     0.00001079    0.00001049   -0.00073689
     atom   18 type  1   force =     0.00006158   -0.00000674    0.00000159
     atom   19 type  1   force =    -0.00000417    0.00000695    0.00005296
     atom   20 type  1   force =    -0.00005654   -0.00066256    0.00082194
     atom   21 type  1   force =    -0.00003382    0.00062342   -0.00084462
     atom   22 type  1   force =    -0.00004196    0.00002697   -0.00008583
     atom   23 type  1   force =     0.00004001    0.00000997    0.00010551
     atom   24 type  1   force =     0.00005578   -0.00001058    0.00064351
     atom   25 type  1   force =     0.00299269   -0.00590086   -0.00032557
     atom   26 type  1   force =    -0.00004255   -0.00000066   -0.00027051

     Total force =     0.002342     Total SCF correction =     0.000321
     SCF correction compared to forces is large: reduce conv_thr to get better values

     BFGS Geometry Optimization
     Energy error            =      0.0E+00 Ry
     Gradient error          =      8.4E-04 Ry/Bohr

     bfgs converged in   1 scf cycles and   0 bfgs steps
     (criteria: energy <  1.0E-04 Ry, force <  1.0E-03 Ry/Bohr)

     End of BFGS Geometry Optimization

     Final energy             =  -20153.5104310434 Ry
Begin final coordinates

ATOMIC_POSITIONS (angstrom)
Au           -0.0000000000        0.0000000000       -0.0113835211    0   0   1
Au            5.0991277561       -0.4233318201       28.8565302851    0   0   1
Au            5.0991339819       -0.4233318201       21.6393422399    0   0   1
Au            5.0991389889        0.0000000000       14.3996142736    0   0   1
Au            5.0991452147        0.0000000000        7.2093849592    0   0   1
Au            1.6997150733        0.0000000000        2.4187938425    0   0   1
Au            1.6996977676       -0.4233318201       24.0379971074    0   0   1
Au            1.6997039934       -0.4233318201       16.8501627850    0   0   1
Au            1.6997090005        0.0000000000        9.6083479320    0   0   1
Au            3.3994301414        0.0000000000        4.8082122376    0   0   1
Au            3.3994129888       -0.4233318201       26.4265821204    0   0   1
Au            3.3994189086       -0.4233318201       19.2452623057    0   0   1
Au            3.3994248284        0.0000000000       12.0046487511    0   0   1
Au            4.2492909414        1.4719970299        2.4187849125    0   0   1
Au            4.2492725751        1.0486652098       24.0379979070    0   0   1
Au            4.2492788009        1.0486652098       16.8501623575    0   0   1
Au            4.2492850215        1.4719970299        9.6083566341    0   0   1
Au            0.8498539674        1.4719970299        4.8082187354    0   0   1
Au            0.8498368147        1.0486652098       26.4265948317    0   0   1
Au            0.8498428875        1.0486652098       19.2452582459    0   0   1
Au            0.8498488838        1.4719970299       12.0046773255    0   0   1
Au            2.5495761740        1.4719970299       -0.0114265548    0   0   1
Au            2.5495526478        1.0486652098       28.8566105368    0   0   1
Au            2.5495578078        1.0486652098       21.6393607977    0   0   1
Au            2.5495637276        1.4719970299       14.3996213073    0   0   1
Au            2.5495699534        1.4719970299        7.2093531213    0   0   1
End final coordinates

     Writing all to output data dir ./pwscf.save/

     General routines

     Parallel routines

   This run was terminated on:   0:11:26  16Feb2024

   JOB DONE.