     Program PWSCF v.7.0 starts on 15Feb2024 at 21:32:13

     R & G space division:  proc/nbgrp/npool/nimage =      10

     Reading input from GSF111_0.2.in
Warning: card &CELL ignored
Warning: card / ignored

     Current dimensions of program PWSCF are:
     Max number of different atomic species (ntypx) = 10
     Max number of k-points (npk) =  40000
     Max angular momentum in pseudopotentials (lmaxx) =  4
     file Au.pbe-n-kjpaw_psl.1.0.0.UPF: wavefunction(s)  6S 5D renormalized
     Found identity + ( -0.5000  0.5000  0.0000) symmetry
     This is a supercell, fractional translations are disabled

     Using Slab Decomposition

     bravais-lattice index     =            0
     lattice parameter (alat)  =       9.6360  a.u.
     unit-cell volume          =    3935.2145 (a.u.)^3
     number of atoms/cell      =           26
     number of atomic types    =            1
     number of electrons       =       286.00
     number of Kohn-Sham states=          172
     kinetic-energy cutoff     =      50.0000  Ry
     charge density cutoff     =     200.0000  Ry
     scf convergence threshold =      1.0E-06
     mixing beta               =       0.7000
     number of iterations used =            8  plain     mixing
     Exchange-correlation= SLA  PW   PBX  PBC
                           (   1   4   3   4   0   0   0)

     celldm(1)=   9.635999  celldm(2)=   0.000000  celldm(3)=   0.000000
     celldm(4)=   0.000000  celldm(5)=   0.000000  celldm(6)=   0.000000

     crystal axes: (cart. coord. in units of alat)
               a(1) = (   1.000000   0.000000   0.000000 )
               a(2) = (   0.000000   0.577350   0.000000 )
               a(3) = (  -0.000005   0.000000   7.617966 )

     reciprocal axes: (cart. coord. in units 2 pi/alat)
               b(1) = (  1.000000  0.000000  0.000001 )
               b(2) = (  0.000000  1.732052  0.000000 )
               b(3) = (  0.000000  0.000000  0.131269 )

     PseudoPot. # 1 for Au read from file:
     ./Au.pbe-n-kjpaw_psl.1.0.0.UPF
     MD5 check sum: 4db85c736373c707a97ce4c36c2a9d23
     Pseudo is Projector augmented-wave + core cor, Zval = 11.0
     Generated using &quot;atomic&quot; code by A. Dal Corso  v.6.3
     Shape of augmentation charge: PSQ
     Using radial grid of 1279 points,  6 beta functions with:
                l(1) =   0
                l(2) =   0
                l(3) =   1
                l(4) =   1
                l(5) =   2
                l(6) =   2
     Q(r) pseudized with 0 coefficients

     atomic species   valence    mass     pseudopotential
        Au            11.00   196.96657     Au( 1.00)

     No symmetry found

   Cartesian axes

     site n.     atom                  positions (alat units)
         1           Au  tau(   1) = (   0.0000000   0.0000000   0.0000000  )
         2           Au  tau(   2) = (   0.9999954   0.1154702   5.6568550  )
         3           Au  tau(   3) = (   0.9999966   0.1154702   4.2426411  )
         4           Au  tau(   4) = (   0.9999976   0.0000000   2.8284275  )
         5           Au  tau(   5) = (   0.9999988   0.0000000   1.4142138  )
         6           Au  tau(   6) = (   0.3333329   0.0000000   0.4714045  )
         7           Au  tau(   7) = (   0.3333296   0.1154702   4.7140455  )
         8           Au  tau(   8) = (   0.3333308   0.1154702   3.2998319  )
         9           Au  tau(   9) = (   0.3333318   0.0000000   1.8856185  )
        10           Au  tau(  10) = (   0.6666659   0.0000000   0.9428093  )
        11           Au  tau(  11) = (   0.6666625   0.1154702   5.1854506  )
        12           Au  tau(  12) = (   0.6666637   0.1154702   3.7712367  )
        13           Au  tau(  13) = (   0.6666649   0.0000000   2.3570234  )
        14           Au  tau(  14) = (   0.8333330   0.2886749   0.4714045  )
        15           Au  tau(  15) = (   0.8333294   0.4041451   4.7140455  )
        16           Au  tau(  16) = (   0.8333306   0.4041451   3.2998319  )
        17           Au  tau(  17) = (   0.8333318   0.2886749   1.8856185  )
        18           Au  tau(  18) = (   0.1666658   0.2886749   0.9428093  )
        19           Au  tau(  19) = (   0.1666624   0.4041451   5.1854506  )
        20           Au  tau(  20) = (   0.1666636   0.4041451   3.7712367  )
        21           Au  tau(  21) = (   0.1666648   0.2886749   2.3570234  )
        22           Au  tau(  22) = (   0.5000001   0.2886749   0.0000000  )
        23           Au  tau(  23) = (   0.4999955   0.4041451   5.6568550  )
        24           Au  tau(  24) = (   0.4999965   0.4041451   4.2426411  )
        25           Au  tau(  25) = (   0.4999977   0.2886749   2.8284275  )
        26           Au  tau(  26) = (   0.4999989   0.2886749   1.4142138  )

     number of k points=    50  Gaussian smearing, width (Ry)=  0.0200
                       cart. coord. in units 2pi/alat
        k(    1) = (   0.0000000   0.0000000   0.0000000), wk =   0.0208333
        k(    2) = (   0.0000000   0.1443376   0.0000000), wk =   0.0416667
        k(    3) = (   0.0000000   0.2886753   0.0000000), wk =   0.0416667
        k(    4) = (   0.0000000   0.4330129   0.0000000), wk =   0.0416667
        k(    5) = (   0.0000000   0.5773506   0.0000000), wk =   0.0416667
        k(    6) = (   0.0000000   0.7216882   0.0000000), wk =   0.0416667
        k(    7) = (   0.0000000  -0.8660259   0.0000000), wk =   0.0208333
        k(    8) = (   0.1250000   0.0000000   0.0000001), wk =   0.0416667
        k(    9) = (   0.1250000   0.1443376   0.0000001), wk =   0.0416667
        k(   10) = (   0.1250000   0.2886753   0.0000001), wk =   0.0416667
        k(   11) = (   0.1250000   0.4330129   0.0000001), wk =   0.0416667
        k(   12) = (   0.1250000   0.5773506   0.0000001), wk =   0.0416667
        k(   13) = (   0.1250000   0.7216882   0.0000001), wk =   0.0416667
        k(   14) = (   0.1250000  -0.8660259   0.0000001), wk =   0.0416667
        k(   15) = (   0.2500000   0.0000000   0.0000002), wk =   0.0416667
        k(   16) = (   0.2500000   0.1443376   0.0000002), wk =   0.0416667
        k(   17) = (   0.2500000   0.2886753   0.0000002), wk =   0.0416667
        k(   18) = (   0.2500000   0.4330129   0.0000002), wk =   0.0416667
        k(   19) = (   0.2500000   0.5773506   0.0000002), wk =   0.0416667
        k(   20) = (   0.2500000   0.7216882   0.0000002), wk =   0.0416667
        k(   21) = (   0.2500000  -0.8660259   0.0000002), wk =   0.0416667
        k(   22) = (   0.3750000   0.0000000   0.0000002), wk =   0.0416667
        k(   23) = (   0.3750000   0.1443376   0.0000002), wk =   0.0416667
        k(   24) = (   0.3750000   0.2886753   0.0000002), wk =   0.0416667
        k(   25) = (   0.3750000   0.4330129   0.0000002), wk =   0.0416667
        k(   26) = (   0.3750000   0.5773506   0.0000002), wk =   0.0416667
        k(   27) = (   0.3750000   0.7216882   0.0000002), wk =   0.0416667
        k(   28) = (   0.3750000  -0.8660259   0.0000002), wk =   0.0416667
        k(   29) = (  -0.5000000   0.0000000  -0.0000003), wk =   0.0208333
        k(   30) = (  -0.5000000   0.1443376  -0.0000003), wk =   0.0416667
        k(   31) = (  -0.5000000   0.2886753  -0.0000003), wk =   0.0416667
        k(   32) = (  -0.5000000   0.4330129  -0.0000003), wk =   0.0416667
        k(   33) = (  -0.5000000   0.5773506  -0.0000003), wk =   0.0416667
        k(   34) = (  -0.5000000   0.7216882  -0.0000003), wk =   0.0416667
        k(   35) = (  -0.5000000  -0.8660259  -0.0000003), wk =   0.0208333
        k(   36) = (  -0.1250000   0.1443376  -0.0000001), wk =   0.0416667
        k(   37) = (  -0.1250000   0.2886753  -0.0000001), wk =   0.0416667
        k(   38) = (  -0.1250000   0.4330129  -0.0000001), wk =   0.0416667
        k(   39) = (  -0.1250000   0.5773506  -0.0000001), wk =   0.0416667
        k(   40) = (  -0.1250000   0.7216882  -0.0000001), wk =   0.0416667
        k(   41) = (  -0.2500000   0.1443376  -0.0000002), wk =   0.0416667
        k(   42) = (  -0.2500000   0.2886753  -0.0000002), wk =   0.0416667
        k(   43) = (  -0.2500000   0.4330129  -0.0000002), wk =   0.0416667
        k(   44) = (  -0.2500000   0.5773506  -0.0000002), wk =   0.0416667
        k(   45) = (  -0.2500000   0.7216882  -0.0000002), wk =   0.0416667
        k(   46) = (  -0.3750000   0.1443376  -0.0000002), wk =   0.0416667
        k(   47) = (  -0.3750000   0.2886753  -0.0000002), wk =   0.0416667
        k(   48) = (  -0.3750000   0.4330129  -0.0000002), wk =   0.0416667
        k(   49) = (  -0.3750000   0.5773506  -0.0000002), wk =   0.0416667
        k(   50) = (  -0.3750000   0.7216882  -0.0000002), wk =   0.0416667

     Initial potential from superposition of free atoms

     starting charge     285.9971, renormalised to     286.0000

     negative rho (up, down):  2.509E-03 0.000E+00
     Starting wfcs are  234 randomized atomic wfcs
     Checking if some PAW data can be deallocated...

     Self-consistent Calculation

     iteration #  1     ecut=    50.00 Ry     beta= 0.70
     Davidson diagonalization with overlap
     ethr =  1.00E-02,  avg # of iterations =  4.9

     Threshold (ethr) on eigenvalues was too large:
     Diagonalizing with lowered threshold

     Davidson diagonalization with overlap
     ethr =  4.13E-04,  avg # of iterations =  4.4

     negative rho (up, down):  1.727E-03 0.000E+00

     total energy              =  -20152.79469116 Ry
     estimated scf accuracy    <       1.49185461 Ry

     iteration #  2     ecut=    50.00 Ry     beta= 0.70
     Davidson diagonalization with overlap
     c_bands:  5 eigenvalues not converged
     c_bands:  1 eigenvalues not converged
     ethr =  5.22E-04,  avg # of iterations = 16.3

[...]

     iteration # 16     ecut=    50.00 Ry     beta= 0.70
     Davidson diagonalization with overlap
     c_bands:  1 eigenvalues not converged
     c_bands:  1 eigenvalues not converged
     ethr =  3.35E-06,  avg # of iterations = 12.9

[...]

     total energy              =  -20153.51549569 Ry
     estimated scf accuracy    <       0.00000169 Ry

     iteration # 31     ecut=    50.00 Ry     beta= 0.70
     Davidson diagonalization with overlap
     ethr =  5.89E-10,  avg # of iterations =  1.0

[...]

     End of self-consistent calculation

          k = 0.0000 0.0000 0.0000 ( 23605 PWs)   bands (ev):

     1.5084   1.6508   1.8849   2.1895   2.5533   2.9443   3.3209   3.6237
     3.8157   3.8946   3.9362   3.9495   4.0658   4.0708   4.0721   4.2070
     4.2275   4.2859   4.4063   4.4274   4.5141   4.5340   4.5654   4.6011
     4.6574   4.6906   4.7473   4.8782   4.9815   5.0021   5.1612   5.4381
     5.6569   5.7746   5.8200   5.9662   6.1395   6.1421   6.1774   6.2294
     6.2502   6.2691   6.3060   6.3161   6.3164   6.3301   6.3409   6.3524
     6.3536   6.3710   6.3920   6.4017   6.4021   6.4051   6.4201   6.4339
     6.4366   6.4533   6.4699   6.4812   6.4999   6.5252   6.5318   6.5410
     6.5571   6.5600   6.5754   6.5868   6.6300   6.6380   6.6970   6.7017
     6.7485   6.7686   6.8479   6.8696   6.8700   6.8712   6.8718   7.0370
     7.0831   7.1444   7.1756   7.2957   7.4390   7.4606   7.5656   7.5717
     7.6071   7.6849   7.6870   7.6934   7.7001   7.7170   7.7303   7.7657
     7.7975   7.8062   7.8723   7.8852   7.8982   7.9491   8.0149   8.0201
     8.0276   8.1037   8.1722   8.1974   8.3109   8.3691   8.3824   8.3867
     8.4765   8.5142   8.5309   8.5531   8.5702   8.5955   8.6933   8.7063
     8.7099   8.7203   8.7582   8.7611   8.7668   8.7989   8.8045   8.8214
     8.8316   8.8357   8.8396   8.8620   8.8810   8.9012   8.9371   8.9546
     9.0154   9.0278   9.1082   9.2194   9.2209   9.4095  10.2058  10.5093
    10.5639  10.6296  10.9332  11.2473  11.4701  11.6263  11.7287  11.7957
    11.8529  11.8845  11.9243  12.1206  12.1219  13.5432  13.7335  13.9632
    13.9910  14.2902  14.5504  14.8663  14.8883  15.0634  15.3501  15.8998
    16.2192  16.3864  16.4586  16.4705

[...]

          k = 0.3750-0.8660 0.0000 ( 23556 PWs)   bands (ev):

[...]

          k =-0.5000 0.0000-0.0000 ( 23442 PWs)   bands (ev):

[...]

          k =-0.3750 0.7217-0.0000 ( 23544 PWs)   bands (ev):

     3.9082   4.0532   4.1776   4.1895   4.2396   4.3189   4.3239   4.3724
     4.4064   4.4222   4.4671   4.4821   4.5405   4.5443   4.5714   4.6241
     4.6354   4.6452   4.6789   4.6986   4.7030   4.7265   4.7884   4.8083
     4.8281   4.8477   4.8660   4.9508   4.9769   4.9874   5.0582   5.0835
     5.1614   5.2011   5.2285   5.2566   5.4746   5.4833   5.6569   5.7394
     5.8425   5.9034   5.9540   6.0797   6.0828   6.1213   6.1779   6.2049
     6.2378   6.3460   6.3567   6.3674   6.4058   6.4332   6.4652   6.4676
     6.5134   6.5148   6.5731   6.6687   6.6924   6.7388   6.7533   6.7811
     6.8457   6.8616   6.9331   7.0031   7.0772   7.0976   7.1622   7.2124
     7.2654   7.2914   7.4219   7.4285   7.4860   7.5476   7.6128   7.6302
     7.7128   7.8118   7.8161   7.8552   7.9170   7.9731   8.0265   8.0808
     8.1107   8.2230   8.2420   8.3109   8.3134   8.3542   8.3675   8.3862
     8.4792   8.4803   8.5086   8.5235   8.5467   8.5471   8.5665   8.5751
     8.5869   8.5930   8.6111   8.6228   8.6442   8.6625   8.6630   8.6961
     8.6988   8.7103   8.7285   8.7293   8.7484   8.7573   8.7708   8.7997
     8.8318   8.8638   8.8656   8.8893   8.9092   8.9488   8.9691   8.9893
     9.0181   9.0358   9.0449   9.1638   9.3748   9.5158   9.5785   9.7462
    10.2006  10.7813  10.8366  10.8673  11.0649  11.1802  11.3650  11.5831
    11.5895  11.8883  12.2422  12.2974  12.5176  12.7079  12.8214  13.0149
    13.0699  13.0996  13.7071  13.7432  13.8747  14.2778  14.3028  14.4055
    14.4407  14.5371  14.7203  14.8843  14.8945  15.1120  15.2549  15.5530
    15.5760  15.8116  16.0310  16.2840

     the Fermi energy is    10.7320 ev

!    total energy              =  -20153.51549568 Ry

     total all-electron energy =   -988623.513863 Ry
     estimated scf accuracy    <       0.00000017 Ry
     smearing contrib. (-TS)   =      -0.02233500 Ry
     internal energy E=F+TS    =  -20153.49316068 Ry

     The total energy is F=E-TS. E is the sum of the following terms:
     one-electron contribution =   -8804.38212146 Ry
     hartree contribution      =    4727.69597207 Ry
     xc contribution           =    -833.60421499 Ry
     ewald contribution        =    2762.13547721 Ry
     one-center paw contrib.   =  -18005.33827350 Ry

     convergence has been achieved in  31 iterations

     negative rho (up, down):  2.351E-03 0.000E+00

     Forces acting on atoms (cartesian axes, Ry/au):

     atom    1 type  1   force =    -0.00006249    0.00001912   -0.00323901
     atom    2 type  1   force =     0.00004968   -0.00002215    0.00325280
     atom    3 type  1   force =     0.00006707   -0.00000101    0.00031563
     atom    4 type  1   force =     0.00734499    0.01011567   -0.01621427
     atom    5 type  1   force =    -0.00004805    0.00001010   -0.00046823
     atom    6 type  1   force =     0.00010515    0.00000231    0.00466261
     atom    7 type  1   force =    -0.00002685   -0.00001011    0.00120963
     atom    8 type  1   force =    -0.00730158   -0.01010926    0.01694400
     atom    9 type  1   force =     0.00000090   -0.00002157   -0.00021549
     atom   10 type  1   force =     0.00002499   -0.00000748   -0.00138535
     atom   11 type  1   force =    -0.00011572    0.00001466   -0.00464150
     atom   12 type  1   force =    -0.00008742    0.00091303    0.00072726
     atom   13 type  1   force =     0.00004492   -0.00090157   -0.00096293
     atom   14 type  1   force =     0.00010840    0.00000008    0.00466924
     atom   15 type  1   force =    -0.00003256   -0.00000636    0.00120673
     atom   16 type  1   force =    -0.00729833   -0.01010848    0.01694653
     atom   17 type  1   force =    -0.00000025   -0.00002187   -0.00021176
     atom   18 type  1   force =     0.00002045   -0.00001329   -0.00139007
     atom   19 type  1   force =    -0.00011591    0.00001262   -0.00464460
     atom   20 type  1   force =    -0.00008815    0.00091332    0.00072453
     atom   21 type  1   force =     0.00005285   -0.00090107   -0.00095479
     atom   22 type  1   force =    -0.00004961    0.00001476   -0.00322415
     atom   23 type  1   force =     0.00004261   -0.00001556    0.00325454
     atom   24 type  1   force =     0.00006702    0.00000496    0.00032152
     atom   25 type  1   force =     0.00734785    0.01011317   -0.01620922
     atom   26 type  1   force =    -0.00004994    0.00000601   -0.00047365

     Total force =     0.043196     Total SCF correction =     0.002671

     Writing all to output data dir ./pwscf.save/

     General routines

     Parallel routines

   This run was terminated on:  22: 8:57  15Feb2024

   JOB DONE.