     Program PWSCF v.7.0 starts on 16Feb2024 at 13:47:23

     R & G space division:  proc/nbgrp/npool/nimage =      10

     Reading input from GSF111R_0.45.in
Warning: card &CELL ignored
Warning: card / ignored

     Current dimensions of program PWSCF are:
     Max number of different atomic species (ntypx) = 10
     Max number of k-points (npk) =  40000
     Max angular momentum in pseudopotentials (lmaxx) =  4
     file Au.pbe-n-kjpaw_psl.1.0.0.UPF: wavefunction(s)  6S 5D renormalized
     Found identity + ( -0.5000  0.5000  0.0000) symmetry
     This is a supercell, fractional translations are disabled

     Using Slab Decomposition

     bravais-lattice index     =            0
     lattice parameter (alat)  =       9.6360  a.u.
     unit-cell volume          =    3935.2145 (a.u.)^3
     number of atoms/cell      =           26
     number of atomic types    =            1
     number of electrons       =       286.00
     number of Kohn-Sham states=          172
     kinetic-energy cutoff     =      50.0000  Ry
     charge density cutoff     =     200.0000  Ry
     scf convergence threshold =      1.0E-06
     mixing beta               =       0.0100
     number of iterations used =            8  plain     mixing
     energy convergence thresh.=      1.0E-04
     force convergence thresh. =      1.0E-03
     Exchange-correlation= SLA  PW   PBX  PBC
                           (   1   4   3   4   0   0   0)
     nstep                     =           50

     celldm(1)=   9.635999  celldm(2)=   0.000000  celldm(3)=   0.000000
     celldm(4)=   0.000000  celldm(5)=   0.000000  celldm(6)=   0.000000

     crystal axes: (cart. coord. in units of alat)
               a(1) = (   1.000000   0.000000   0.000000 )
               a(2) = (   0.000000   0.577350   0.000000 )
               a(3) = (  -0.000005   0.000000   7.617966 )

     reciprocal axes: (cart. coord. in units 2 pi/alat)
               b(1) = (  1.000000  0.000000  0.000001 )
               b(2) = (  0.000000  1.732052  0.000000 )
               b(3) = (  0.000000  0.000000  0.131269 )

     PseudoPot. # 1 for Au read from file:
     ./Au.pbe-n-kjpaw_psl.1.0.0.UPF
     MD5 check sum: 4db85c736373c707a97ce4c36c2a9d23
     Pseudo is Projector augmented-wave + core cor, Zval = 11.0
     Generated using &quot;atomic&quot; code by A. Dal Corso  v.6.3
     Shape of augmentation charge: PSQ
     Using radial grid of 1279 points,  6 beta functions with:
                l(1) =   0
                l(2) =   0
                l(3) =   1
                l(4) =   1
                l(5) =   2
                l(6) =   2
     Q(r) pseudized with 0 coefficients

     atomic species   valence    mass     pseudopotential
        Au            11.00   196.96657     Au( 1.00)

     No symmetry found

   Cartesian axes

     site n.     atom                  positions (alat units)
         1           Au  tau(   1) = (   0.0000000   0.0000000   0.0000000  )
         2           Au  tau(   2) = (   0.9999954   0.2598079   5.6568550  )
         3           Au  tau(   3) = (   0.9999966   0.2598079   4.2426411  )
         4           Au  tau(   4) = (   0.9999976   0.0000000   2.8284275  )
         5           Au  tau(   5) = (   0.9999988   0.0000000   1.4142138  )
         6           Au  tau(   6) = (   0.3333329   0.0000000   0.4714045  )
         7           Au  tau(   7) = (   0.3333296   0.2598079   4.7140455  )
         8           Au  tau(   8) = (   0.3333308   0.2598079   3.2998319  )
         9           Au  tau(   9) = (   0.3333318   0.0000000   1.8856185  )
        10           Au  tau(  10) = (   0.6666659   0.0000000   0.9428093  )
        11           Au  tau(  11) = (   0.6666625   0.2598079   5.1854506  )
        12           Au  tau(  12) = (   0.6666637   0.2598079   3.7712367  )
        13           Au  tau(  13) = (   0.6666649   0.0000000   2.3570234  )
        14           Au  tau(  14) = (   0.8333330   0.2886749   0.4714045  )
        15           Au  tau(  15) = (   0.8333294   0.5484829   4.7140455  )
        16           Au  tau(  16) = (   0.8333306   0.5484829   3.2998319  )
        17           Au  tau(  17) = (   0.8333318   0.2886749   1.8856185  )
        18           Au  tau(  18) = (   0.1666658   0.2886749   0.9428093  )
        19           Au  tau(  19) = (   0.1666624   0.5484829   5.1854506  )
        20           Au  tau(  20) = (   0.1666636   0.5484829   3.7712367  )
        21           Au  tau(  21) = (   0.1666648   0.2886749   2.3570234  )
        22           Au  tau(  22) = (   0.5000001   0.2886749   0.0000000  )
        23           Au  tau(  23) = (   0.4999955   0.5484829   5.6568550  )
        24           Au  tau(  24) = (   0.4999965   0.5484829   4.2426411  )
        25           Au  tau(  25) = (   0.4999977   0.2886749   2.8284275  )
        26           Au  tau(  26) = (   0.4999989   0.2886749   1.4142138  )

     number of k points=    50  Gaussian smearing, width (Ry)=  0.0020
                       cart. coord. in units 2pi/alat
        k(    1) = (   0.0000000   0.0000000   0.0000000), wk =   0.0208333
        k(    2) = (   0.0000000   0.1443376   0.0000000), wk =   0.0416667
        k(    3) = (   0.0000000   0.2886753   0.0000000), wk =   0.0416667
        k(    4) = (   0.0000000   0.4330129   0.0000000), wk =   0.0416667
        k(    5) = (   0.0000000   0.5773506   0.0000000), wk =   0.0416667
        k(    6) = (   0.0000000   0.7216882   0.0000000), wk =   0.0416667
        k(    7) = (   0.0000000  -0.8660259   0.0000000), wk =   0.0208333
        k(    8) = (   0.1250000   0.0000000   0.0000001), wk =   0.0416667
        k(    9) = (   0.1250000   0.1443376   0.0000001), wk =   0.0416667
        k(   10) = (   0.1250000   0.2886753   0.0000001), wk =   0.0416667
        k(   11) = (   0.1250000   0.4330129   0.0000001), wk =   0.0416667
        k(   12) = (   0.1250000   0.5773506   0.0000001), wk =   0.0416667
        k(   13) = (   0.1250000   0.7216882   0.0000001), wk =   0.0416667
        k(   14) = (   0.1250000  -0.8660259   0.0000001), wk =   0.0416667
        k(   15) = (   0.1250000  -0.7216882   0.0000001), wk =   0.0416667
        k(   16) = (   0.1250000  -0.5773506   0.0000001), wk =   0.0416667
        k(   17) = (   0.1250000  -0.4330129   0.0000001), wk =   0.0416667
        k(   18) = (   0.1250000  -0.2886753   0.0000001), wk =   0.0416667
        k(   19) = (   0.1250000  -0.1443376   0.0000001), wk =   0.0416667
        k(   20) = (   0.2500000   0.0000000   0.0000002), wk =   0.0416667
        k(   21) = (   0.2500000   0.1443376   0.0000002), wk =   0.0416667
        k(   22) = (   0.2500000   0.2886753   0.0000002), wk =   0.0416667
        k(   23) = (   0.2500000   0.4330129   0.0000002), wk =   0.0416667
        k(   24) = (   0.2500000   0.5773506   0.0000002), wk =   0.0416667
        k(   25) = (   0.2500000   0.7216882   0.0000002), wk =   0.0416667
        k(   26) = (   0.2500000  -0.8660259   0.0000002), wk =   0.0416667
        k(   27) = (   0.2500000  -0.7216882   0.0000002), wk =   0.0416667
        k(   28) = (   0.2500000  -0.5773506   0.0000002), wk =   0.0416667
        k(   29) = (   0.2500000  -0.4330129   0.0000002), wk =   0.0416667
        k(   30) = (   0.2500000  -0.2886753   0.0000002), wk =   0.0416667
        k(   31) = (   0.2500000  -0.1443376   0.0000002), wk =   0.0416667
        k(   32) = (   0.3750000   0.0000000   0.0000002), wk =   0.0416667
        k(   33) = (   0.3750000   0.1443376   0.0000002), wk =   0.0416667
        k(   34) = (   0.3750000   0.2886753   0.0000002), wk =   0.0416667
        k(   35) = (   0.3750000   0.4330129   0.0000002), wk =   0.0416667
        k(   36) = (   0.3750000   0.5773506   0.0000002), wk =   0.0416667
        k(   37) = (   0.3750000   0.7216882   0.0000002), wk =   0.0416667
        k(   38) = (   0.3750000  -0.8660259   0.0000002), wk =   0.0416667
        k(   39) = (   0.3750000  -0.7216882   0.0000002), wk =   0.0416667
        k(   40) = (   0.3750000  -0.5773506   0.0000002), wk =   0.0416667
        k(   41) = (   0.3750000  -0.4330129   0.0000002), wk =   0.0416667
        k(   42) = (   0.3750000  -0.2886753   0.0000002), wk =   0.0416667
        k(   43) = (   0.3750000  -0.1443376   0.0000002), wk =   0.0416667
        k(   44) = (  -0.5000000   0.0000000  -0.0000003), wk =   0.0208333
        k(   45) = (  -0.5000000   0.1443376  -0.0000003), wk =   0.0416667
        k(   46) = (  -0.5000000   0.2886753  -0.0000003), wk =   0.0416667
        k(   47) = (  -0.5000000   0.4330129  -0.0000003), wk =   0.0416667
        k(   48) = (  -0.5000000   0.5773506  -0.0000003), wk =   0.0416667
        k(   49) = (  -0.5000000   0.7216882  -0.0000003), wk =   0.0416667
        k(   50) = (  -0.5000000  -0.8660259  -0.0000003), wk =   0.0208333

     Initial potential from superposition of free atoms

     starting charge     285.9971, renormalised to     286.0000

     negative rho (up, down):  2.402E-03 0.000E+00
     Starting wfcs are  234 randomized atomic wfcs
     Checking if some PAW data can be deallocated...

     Self-consistent Calculation

     iteration #  1     ecut=    50.00 Ry     beta= 0.01
     Davidson diagonalization with overlap
     ethr =  1.00E-02,  avg # of iterations =  5.1

     Threshold (ethr) on eigenvalues was too large:
     Diagonalizing with lowered threshold

     Davidson diagonalization with overlap
     ethr =  3.84E-04,  avg # of iterations =  3.8

     negative rho (up, down):  2.389E-03 0.000E+00

     total energy              =  -20153.82623911 Ry
     estimated scf accuracy    <       1.41693964 Ry

[...]

     iteration #  8     ecut=    50.00 Ry     beta= 0.01
     Davidson diagonalization with overlap
     c_bands:  3 eigenvalues not converged
     ethr =  3.66E-05,  avg # of iterations =  7.4

[...]

     End of self-consistent calculation

          k = 0.0000 0.0000 0.0000 ( 23605 PWs)   bands (ev):

     1.5123   1.6497   1.8933   2.1931   2.5592   2.9500   3.3264   3.6281
     3.8212   3.8861   3.9249   4.0026   4.0642   4.0736   4.0755   4.2063
     4.2201   4.2821   4.4024   4.4317   4.4688   4.5522   4.5612   4.6018
     4.6355   4.6815   4.8480   4.9369   4.9999   5.0449   5.2112   5.3101
     5.4112   5.4508   5.7489   5.9830   6.1433   6.1691   6.1853   6.2276
     6.2470   6.2685   6.3095   6.3204   6.3252   6.3297   6.3352   6.3433
     6.3521   6.3525   6.3707   6.3882   6.4046   6.4095   6.4206   6.4257
     6.4396   6.4706   6.4761   6.4780   6.5134   6.5217   6.5372   6.5503
     6.5599   6.5616   6.5698   6.5861   6.5942   6.6287   6.6362   6.6975
     6.7416   6.7660   6.8714   6.8715   6.8756   6.8757   6.9067   7.0011
     7.0546   7.1407   7.1691   7.2627   7.4899   7.5497   7.6256   7.6586
     7.6615   7.6789   7.6830   7.6927   7.6982   7.7137   7.7330   7.7557
     7.7712   7.8465   7.8480   7.8669   7.8979   7.9471   8.0008   8.0272
     8.0446   8.1268   8.1680   8.1881   8.3131   8.3516   8.3788   8.3902
     8.5096   8.5185   8.5605   8.5713   8.5825   8.6746   8.6969   8.6974
     8.7090   8.7452   8.7596   8.7627   8.7840   8.7957   8.7980   8.8031
[...]

     convergence has been achieved in  44 iterations

[...]

     Forces acting on atoms (cartesian axes, Ry/au):

     atom    1 type  1   force =    -0.00001813    0.00002313   -0.00316746
     atom    2 type  1   force =    -0.00004044   -0.00006329    0.00312972
     atom    3 type  1   force =     0.00008958   -0.00002709    0.00037075
     atom    4 type  1   force =     0.02290523    0.00434966   -0.05420661
     atom    5 type  1   force =     0.00003958    0.00000407    0.00044354
     atom    6 type  1   force =     0.00001513    0.00000539    0.00529068
     atom    7 type  1   force =    -0.00014068   -0.00004432    0.00199237
     atom    8 type  1   force =    -0.02275771   -0.00441930    0.05411675
     atom    9 type  1   force =    -0.00002831   -0.00001507   -0.00112875
     atom   10 type  1   force =     0.00009890    0.00001071   -0.00212813
     atom   11 type  1   force =    -0.00002512   -0.00002619   -0.00541877
     atom   12 type  1   force =    -0.00024360    0.00028545    0.00279570
     atom   13 type  1   force =     0.00009849   -0.00028318   -0.00208003
     atom   14 type  1   force =     0.00001253    0.00000479    0.00528967
     atom   15 type  1   force =    -0.00014060    0.00002229    0.00197343
     atom   16 type  1   force =    -0.02273130   -0.00434745    0.05412728
     atom   17 type  1   force =    -0.00003877   -0.00001878   -0.00113342
     atom   18 type  1   force =     0.00009122   -0.00000018   -0.00212008
     atom   19 type  1   force =    -0.00004788    0.00003444   -0.00542510
     atom   20 type  1   force =    -0.00026451    0.00035043    0.00279812
     atom   21 type  1   force =     0.00012289   -0.00027181   -0.00207323
     atom   22 type  1   force =    -0.00001184    0.00001787   -0.00315580
     atom   23 type  1   force =     0.00000713    0.00001300    0.00311591
     atom   24 type  1   force =     0.00007594    0.00004337    0.00037752
     atom   25 type  1   force =     0.02290886    0.00435544   -0.05423057
     atom   26 type  1   force =     0.00002343   -0.00000339    0.00044650

     Total force =     0.109254     Total SCF correction =     0.001971

     BFGS Geometry Optimization
     Energy error            =      0.0E+00 Ry
     Gradient error          =      5.4E-02 Ry/Bohr

     number of scf cycles    =   1
     number of bfgs steps    =   0

     energy             new  =  -20153.4786137569 Ry

     new trust radius        =       0.0542305681 bohr
     new conv_thr            =       0.0000010000 Ry

ATOMIC_POSITIONS (angstrom)
Au           -0.0000000000        0.0000000000       -0.0016761461    0   0   1
Au            5.0991277561        1.3248000000       28.8468148760    0   0   1
Au            5.0991339819        1.3248000000       21.6340643643    0   0   1
Au            5.0991389889        0.0000000000       14.3938944484    0   0   1
Au            5.0991452147        0.0000000000        7.2115244159    0   0   1
Au            1.6997150733        0.0000000000        2.4065627265    0   0   1
Au            1.6996977676        1.3248000000       24.0386848042    0   0   1
Au            1.6997039934        1.3248000000       16.8549790737    0   0   1
Au            1.6997090005        0.0000000000        9.6144564764    0   0   1
Au            3.3994301414        0.0000000000        4.8064007046    0   0   1
Au            3.3994129888        1.3248000000       26.4385288967    0   0   1
Au            3.3994189086        1.3248000000       19.2315852244    0   0   1
Au            3.3994248284        0.0000000000       12.0177180379    0   0   1
Au            4.2492909414        1.4719970299        2.4065621942    0   0   1
Au            4.2492725751        2.7967970299       24.0386747802    0   0   1
Au            4.2492788009        2.7967970299       16.8549846459    0   0   1
Au            4.2492850215        1.4719970299        9.6144540033    0   0   1
Au            0.8498539674        1.4719970299        4.8064049663    0   0   1
Au            0.8498368147        2.7967970299       26.4385255510    0   0   1
Au            0.8498428875        2.7967970299       19.2315865008    0   0   1
Au            0.8498488838        1.4719970299       12.0177216392    0   0   1
Au            2.5495761740        1.4719970299       -0.0016699778    0   0   1
Au            2.5495526478        2.7967970299       28.8468075700    0   0   1
Au            2.5495578078        2.7967970299       21.6340679471    0   0   1
Au            2.5495637276        1.4719970299       14.3938817701    0   0   1
Au            2.5495699534        1.4719970299        7.2115259835    0   0   1

     Writing config-only to output data dir ./pwscf.save/
     NEW-OLD atomic charge density approx. for the potential

[...]

     Total force =     0.065754     Total SCF correction =     0.003087
     Energy error            =      2.1E-02 Ry
     Gradient error          =      3.2E-02 Ry/Bohr

[...]

     energy             old  =  -20153.5086459717 Ry
     energy             new  =  -20153.4879293076 Ry

     CASE: energy            _new > energy            _old

[...]

     Total force =     0.025041     Total SCF correction =     0.002594
     SCF correction compared to forces is large: reduce conv_thr to get better values
     Energy error            =      1.1E-03 Ry
     Gradient error          =      1.1E-02 Ry/Bohr

[...]

     iteration #  8     ecut=    50.00 Ry     beta= 0.01
     Davidson diagonalization with overlap
     c_bands:  1 eigenvalues not converged
     ethr =  7.99E-10,  avg # of iterations =  1.9

[...]

     CASE: energy            _new > energy            _old

     new trust radius        =       0.0000069452 bohr

     trust_radius < trust_radius_min

     resetting bfgs history

     new conv_thr            =       0.0000010000 Ry

[...]

     CASE: energy            _new < energy            _old

     WARNING: bfgs curvature condition failed, Theta= 0.900
     new trust radius        =       0.0105066081 bohr
     new conv_thr            =       0.0000000447 Ry

[...]

     Total force =     0.002764     Total SCF correction =     0.000221
     Energy error            =      3.3E-05 Ry
     Gradient error          =      1.4E-03 Ry/Bohr

[...]

     number of scf cycles    =  15
     number of bfgs steps    =  10

     energy             old  =  -20153.5100915638 Ry
     energy             new  =  -20153.5100981456 Ry

     CASE: energy            _new < energy            _old

     new trust radius        =       0.0025948847 bohr
     new conv_thr            =       0.0000000100 Ry

ATOMIC_POSITIONS (angstrom)
Au           -0.0000000000        0.0000000000       -0.0124236230    0   0   1
Au            5.0991277561        0.4416000000       28.8574967640    0   0   1
Au            5.0991339819        0.4416000000       21.6438267443    0   0   1
Au            5.0991389889        0.0000000000       14.3955529817    0   0   1
Au            5.0991452147        0.0000000000        7.2079357501    0   0   1
Au            1.6997150733        0.0000000000        2.4201400161    0   0   1
Au            1.6996977676        0.4416000000       24.0371346421    0   0   1
Au            1.6997039934        0.4416000000       16.8543404699    0   0   1
Au            1.6997090005        0.0000000000        9.6040095225    0   0   1
Au            3.3994301414        0.0000000000        4.8098876538    0   0   1
Au            3.3994129888        0.4416000000       26.4252699983    0   0   1
Au            3.3994189086        0.4416000000       19.2537745422    0   0   1
Au            3.3994248284        0.0000000000       11.9965461626    0   0   1
Au            4.2492909414        1.4719970299        2.4201269276    0   0   1
Au            4.2492725751        1.9135970299       24.0370973558    0   0   1
Au            4.2492788009        1.9135970299       16.8543390239    0   0   1
Au            4.2492850215        1.4719970299        9.6040337681    0   0   1
Au            0.8498539674        1.4719970299        4.8098896901    0   0   1
Au            0.8498368147        1.9135970299       26.4252990091    0   0   1
Au            0.8498428875        1.9135970299       19.2537560287    0   0   1
Au            0.8498488838        1.4719970299       11.9965861406    0   0   1
Au            2.5495761740        1.4719970299       -0.0124029165    0   0   1
Au            2.5495526478        1.9135970299       28.8575302611    0   0   1
Au            2.5495578078        1.9135970299       21.6438818193    0   0   1
Au            2.5495637276        1.4719970299       14.3955478992    0   0   1
Au            2.5495699534        1.4719970299        7.2078888450    0   0   1

     Writing config-only to output data dir ./pwscf.save/
     NEW-OLD atomic charge density approx. for the potential

[...]

     Self-consistent Calculation

[...]

     Threshold (ethr) on eigenvalues was too large:
     Diagonalizing with lowered threshold

     Davidson diagonalization with overlap
     ethr =  5.81E-09,  avg # of iterations =  3.0

[...]

     total energy              =  -20153.51010770 Ry
     estimated scf accuracy    <       0.00000004 Ry

     iteration # 15     ecut=    50.00 Ry     beta= 0.01
     Davidson diagonalization with overlap
     ethr =  1.04E-11,  avg # of iterations =  2.0

[...]

     End of self-consistent calculation

[...]

          k = 0.3750-0.1443 0.0000 ( 23495 PWs)   bands (ev):

[...]

          k =-0.5000-0.8660-0.0000 ( 23552 PWs)   bands (ev):

     3.9386   3.9732   4.0345   4.0353   4.1921   4.2107   4.2182   4.2457
     4.2645   4.2779   4.3892   4.3986   4.4394   4.4425   4.4826   4.4901
     4.5237   4.5307   4.5389   4.5394   4.6025   4.6165   4.6522   4.6573
     4.6935   4.7053   4.7364   4.7377   4.8776   4.8834   5.0127   5.0156
     5.0364   5.0366   5.1747   5.1756   5.4482   5.4524   5.7065   5.7400
     5.9185   5.9400   6.0224   6.0829   6.1566   6.1646   6.1957   6.2159
     6.3045   6.3141   6.3199   6.3229   6.3563   6.3724   6.3965   6.3987
     6.5447   6.6116   6.6691   6.7038   6.7675   6.7790   6.8229   6.8450
     7.0049   7.0290   7.0396   7.0630   7.1480   7.1543   7.2811   7.2896
     7.4491   7.4612   7.5664   7.5694   7.5993   7.6310   7.8561   7.8589
     7.8944   7.9543   8.0684   8.0713   8.1112   8.1246   8.3633   8.3683
     8.3843   8.3856   8.4960   8.5045   8.5607   8.5846   8.6698   8.6944
     8.6957   8.7310   8.7350   8.7395   8.7832   8.7852   8.7884   8.7892
     8.8114   8.8212   8.8353   8.8396   8.8476   8.8511   8.8572   8.8620
     8.8825   8.8879   8.9125   8.9165   8.9453   8.9584   8.9695   8.9860
     9.0093   9.0206   9.0239   9.0276   9.0573   9.0783   9.2379   9.2380
     9.2401   9.2402  10.1750  10.2776  10.5336  10.5467  10.9054  10.9847
    11.1892  11.2458  11.4523  11.4583  11.5667  11.6266  11.6816  11.7325
    11.7670  11.7951  11.8272  11.8638  11.8731  11.8808  11.9126  12.1308
    12.1309  12.1318  12.1321  12.3681  13.2793  13.6467  13.7248  13.7586
    13.8861  14.0996  14.2548  14.3156  14.4704  14.6286  14.8426  14.9592
    15.2512  15.4613  15.7932  15.7961

     the Fermi energy is    10.7310 ev

!    total energy              =  -20153.51010756 Ry

     total all-electron energy =   -988623.508475 Ry
     estimated scf accuracy    <          6.6E-09 Ry
     smearing contrib. (-TS)   =      -0.00036110 Ry
     internal energy E=F+TS    =  -20153.50974646 Ry

     The total energy is F=E-TS. E is the sum of the following terms:
     one-electron contribution =   -8782.19019622 Ry
     hartree contribution      =    4716.60164349 Ry
     xc contribution           =    -833.59388745 Ry
     ewald contribution        =    2751.00597399 Ry
     one-center paw contrib.   =  -18005.33328028 Ry

     convergence has been achieved in  15 iterations

     negative rho (up, down):  2.273E-03 0.000E+00

     Forces acting on atoms (cartesian axes, Ry/au):

     atom    1 type  1   force =    -0.00005188   -0.00001130    0.00025854
     atom    2 type  1   force =     0.00004361    0.00003388   -0.00021229
     atom    3 type  1   force =     0.00005991    0.00006231    0.00046895
     atom    4 type  1   force =     0.00307897    0.00580465   -0.00024513
     atom    5 type  1   force =    -0.00004124   -0.00000341   -0.00025795
     atom    6 type  1   force =     0.00001455   -0.00001742   -0.00025299
     atom    7 type  1   force =    -0.00007230    0.00001446    0.00091171
     atom    8 type  1   force =    -0.00300355   -0.00581705    0.00030731
     atom    9 type  1   force =     0.00001004   -0.00001802   -0.00091337
     atom   10 type  1   force =     0.00006686    0.00000293   -0.00046482
     atom   11 type  1   force =    -0.00001201    0.00005940    0.00047222
     atom   12 type  1   force =    -0.00006000    0.00071712   -0.00041814
     atom   13 type  1   force =    -0.00003636   -0.00063242    0.00034379
     atom   14 type  1   force =     0.00001624   -0.00001890   -0.00025039
     atom   15 type  1   force =    -0.00006371   -0.00005148    0.00091254
     atom   16 type  1   force =    -0.00300431   -0.00588152    0.00030792
     atom   17 type  1   force =     0.00001193   -0.00001217   -0.00091477
     atom   18 type  1   force =     0.00005949    0.00000947   -0.00046541
     atom   19 type  1   force =    -0.00001170   -0.00001691    0.00047082
     atom   20 type  1   force =    -0.00005380    0.00065229   -0.00041528
     atom   21 type  1   force =    -0.00003305   -0.00062925    0.00034288
     atom   22 type  1   force =    -0.00004538   -0.00001312    0.00024991
     atom   23 type  1   force =     0.00003298   -0.00003900   -0.00020480
     atom   24 type  1   force =     0.00005714    0.00000037    0.00046761
     atom   25 type  1   force =     0.00308046    0.00580570   -0.00024535
     atom   26 type  1   force =    -0.00004285   -0.00000060   -0.00025350

     Total force =     0.002453     Total SCF correction =     0.000253
     SCF correction compared to forces is large: reduce conv_thr to get better values
     Energy error            =      9.4E-06 Ry
     Gradient error          =      9.1E-04 Ry/Bohr

     bfgs converged in  16 scf cycles and  11 bfgs steps
     (criteria: energy <  1.0E-04 Ry, force <  1.0E-03 Ry/Bohr)

     End of BFGS Geometry Optimization

     Final energy             =  -20153.5101075599 Ry

     File ./pwscf.bfgs deleted, as requested
Begin final coordinates

ATOMIC_POSITIONS (angstrom)
Au           -0.0000000000        0.0000000000       -0.0124236230    0   0   1
Au            5.0991277561        0.4416000000       28.8574967640    0   0   1
Au            5.0991339819        0.4416000000       21.6438267443    0   0   1
Au            5.0991389889        0.0000000000       14.3955529817    0   0   1
Au            5.0991452147        0.0000000000        7.2079357501    0   0   1
Au            1.6997150733        0.0000000000        2.4201400161    0   0   1
Au            1.6996977676        0.4416000000       24.0371346421    0   0   1
Au            1.6997039934        0.4416000000       16.8543404699    0   0   1
Au            1.6997090005        0.0000000000        9.6040095225    0   0   1
Au            3.3994301414        0.0000000000        4.8098876538    0   0   1
Au            3.3994129888        0.4416000000       26.4252699983    0   0   1
Au            3.3994189086        0.4416000000       19.2537745422    0   0   1
Au            3.3994248284        0.0000000000       11.9965461626    0   0   1
Au            4.2492909414        1.4719970299        2.4201269276    0   0   1
Au            4.2492725751        1.9135970299       24.0370973558    0   0   1
Au            4.2492788009        1.9135970299       16.8543390239    0   0   1
Au            4.2492850215        1.4719970299        9.6040337681    0   0   1
Au            0.8498539674        1.4719970299        4.8098896901    0   0   1
Au            0.8498368147        1.9135970299       26.4252990091    0   0   1
Au            0.8498428875        1.9135970299       19.2537560287    0   0   1
Au            0.8498488838        1.4719970299       11.9965861406    0   0   1
Au            2.5495761740        1.4719970299       -0.0124029165    0   0   1
Au            2.5495526478        1.9135970299       28.8575302611    0   0   1
Au            2.5495578078        1.9135970299       21.6438818193    0   0   1
Au            2.5495637276        1.4719970299       14.3955478992    0   0   1
Au            2.5495699534        1.4719970299        7.2078888450    0   0   1
End final coordinates

     Writing all to output data dir ./pwscf.save/

     General routines

     Parallel routines

   This run was terminated on:  20:24:59  16Feb2024

   JOB DONE.