     Program PWSCF v.7.0 starts on 15Feb2024 at 22: 9: 0

     R & G space division:  proc/nbgrp/npool/nimage =      10

     Reading input from GSF111_0.25.in
Warning: card &CELL ignored
Warning: card / ignored

     Current dimensions of program PWSCF are:
     Max number of different atomic species (ntypx) = 10
     Max number of k-points (npk) =  40000
     Max angular momentum in pseudopotentials (lmaxx) =  4

     File ./pwscf.bfgs deleted, as requested
     file Au.pbe-n-kjpaw_psl.1.0.0.UPF: wavefunction(s)  6S 5D renormalized
     Found identity + ( -0.5000  0.5000  0.0000) symmetry
     This is a supercell, fractional translations are disabled

     Using Slab Decomposition

     bravais-lattice index     =            0
     lattice parameter (alat)  =       9.6360  a.u.
     unit-cell volume          =    3935.2145 (a.u.)^3
     number of atoms/cell      =           26
     number of atomic types    =            1
     number of electrons       =       286.00
     number of Kohn-Sham states=          172
     kinetic-energy cutoff     =      50.0000  Ry
     charge density cutoff     =     200.0000  Ry
     scf convergence threshold =      1.0E-06
     mixing beta               =       0.7000
     number of iterations used =            8  plain     mixing
     Exchange-correlation= SLA  PW   PBX  PBC
                           (   1   4   3   4   0   0   0)

     celldm(1)=   9.635999  celldm(2)=   0.000000  celldm(3)=   0.000000
     celldm(4)=   0.000000  celldm(5)=   0.000000  celldm(6)=   0.000000

     crystal axes: (cart. coord. in units of alat)
               a(1) = (   1.000000   0.000000   0.000000 )
               a(2) = (   0.000000   0.577350   0.000000 )
               a(3) = (  -0.000005   0.000000   7.617966 )

     reciprocal axes: (cart. coord. in units 2 pi/alat)
               b(1) = (  1.000000  0.000000  0.000001 )
               b(2) = (  0.000000  1.732052  0.000000 )
               b(3) = (  0.000000  0.000000  0.131269 )

     PseudoPot. # 1 for Au read from file:
     ./Au.pbe-n-kjpaw_psl.1.0.0.UPF
     MD5 check sum: 4db85c736373c707a97ce4c36c2a9d23
     Pseudo is Projector augmented-wave + core cor, Zval = 11.0
     Generated using &quot;atomic&quot; code by A. Dal Corso  v.6.3
     Shape of augmentation charge: PSQ
     Using radial grid of 1279 points,  6 beta functions with:
                l(1) =   0
                l(2) =   0
                l(3) =   1
                l(4) =   1
                l(5) =   2
                l(6) =   2
     Q(r) pseudized with 0 coefficients

     atomic species   valence    mass     pseudopotential
        Au            11.00   196.96657     Au( 1.00)

     No symmetry found

   Cartesian axes

     site n.     atom                  positions (alat units)
         1           Au  tau(   1) = (   0.0000000   0.0000000   0.0000000  )
         2           Au  tau(   2) = (   0.9999954   0.1443377   5.6568550  )
         3           Au  tau(   3) = (   0.9999966   0.1443377   4.2426411  )
         4           Au  tau(   4) = (   0.9999976   0.0000000   2.8284275  )
         5           Au  tau(   5) = (   0.9999988   0.0000000   1.4142138  )
         6           Au  tau(   6) = (   0.3333329   0.0000000   0.4714045  )
         7           Au  tau(   7) = (   0.3333296   0.1443377   4.7140455  )
         8           Au  tau(   8) = (   0.3333308   0.1443377   3.2998319  )
         9           Au  tau(   9) = (   0.3333318   0.0000000   1.8856185  )
        10           Au  tau(  10) = (   0.6666659   0.0000000   0.9428093  )
        11           Au  tau(  11) = (   0.6666625   0.1443377   5.1854506  )
        12           Au  tau(  12) = (   0.6666637   0.1443377   3.7712367  )
        13           Au  tau(  13) = (   0.6666649   0.0000000   2.3570234  )
        14           Au  tau(  14) = (   0.8333330   0.2886749   0.4714045  )
        15           Au  tau(  15) = (   0.8333294   0.4330127   4.7140455  )
        16           Au  tau(  16) = (   0.8333306   0.4330127   3.2998319  )
        17           Au  tau(  17) = (   0.8333318   0.2886749   1.8856185  )
        18           Au  tau(  18) = (   0.1666658   0.2886749   0.9428093  )
        19           Au  tau(  19) = (   0.1666624   0.4330127   5.1854506  )
        20           Au  tau(  20) = (   0.1666636   0.4330127   3.7712367  )
        21           Au  tau(  21) = (   0.1666648   0.2886749   2.3570234  )
        22           Au  tau(  22) = (   0.5000001   0.2886749   0.0000000  )
        23           Au  tau(  23) = (   0.4999955   0.4330127   5.6568550  )
        24           Au  tau(  24) = (   0.4999965   0.4330127   4.2426411  )
        25           Au  tau(  25) = (   0.4999977   0.2886749   2.8284275  )
        26           Au  tau(  26) = (   0.4999989   0.2886749   1.4142138  )

     number of k points=    50  Gaussian smearing, width (Ry)=  0.0200
                       cart. coord. in units 2pi/alat
        k(    1) = (   0.0000000   0.0000000   0.0000000), wk =   0.0208333
        k(    2) = (   0.0000000   0.1443376   0.0000000), wk =   0.0416667
        k(    3) = (   0.0000000   0.2886753   0.0000000), wk =   0.0416667
        k(    4) = (   0.0000000   0.4330129   0.0000000), wk =   0.0416667
        k(    5) = (   0.0000000   0.5773506   0.0000000), wk =   0.0416667
        k(    6) = (   0.0000000   0.7216882   0.0000000), wk =   0.0416667
        k(    7) = (   0.0000000  -0.8660259   0.0000000), wk =   0.0208333
        k(    8) = (   0.1250000   0.0000000   0.0000001), wk =   0.0416667
        k(    9) = (   0.1250000   0.1443376   0.0000001), wk =   0.0416667
        k(   10) = (   0.1250000   0.2886753   0.0000001), wk =   0.0416667
        k(   11) = (   0.1250000   0.4330129   0.0000001), wk =   0.0416667
        k(   12) = (   0.1250000   0.5773506   0.0000001), wk =   0.0416667
        k(   13) = (   0.1250000   0.7216882   0.0000001), wk =   0.0416667
        k(   14) = (   0.1250000  -0.8660259   0.0000001), wk =   0.0416667
        k(   15) = (   0.2500000   0.0000000   0.0000002), wk =   0.0416667
        k(   16) = (   0.2500000   0.1443376   0.0000002), wk =   0.0416667
        k(   17) = (   0.2500000   0.2886753   0.0000002), wk =   0.0416667
        k(   18) = (   0.2500000   0.4330129   0.0000002), wk =   0.0416667
        k(   19) = (   0.2500000   0.5773506   0.0000002), wk =   0.0416667
        k(   20) = (   0.2500000   0.7216882   0.0000002), wk =   0.0416667
        k(   21) = (   0.2500000  -0.8660259   0.0000002), wk =   0.0416667
        k(   22) = (   0.3750000   0.0000000   0.0000002), wk =   0.0416667
        k(   23) = (   0.3750000   0.1443376   0.0000002), wk =   0.0416667
        k(   24) = (   0.3750000   0.2886753   0.0000002), wk =   0.0416667
        k(   25) = (   0.3750000   0.4330129   0.0000002), wk =   0.0416667
        k(   26) = (   0.3750000   0.5773506   0.0000002), wk =   0.0416667
        k(   27) = (   0.3750000   0.7216882   0.0000002), wk =   0.0416667
        k(   28) = (   0.3750000  -0.8660259   0.0000002), wk =   0.0416667
        k(   29) = (  -0.5000000   0.0000000  -0.0000003), wk =   0.0208333
        k(   30) = (  -0.5000000   0.1443376  -0.0000003), wk =   0.0416667
        k(   31) = (  -0.5000000   0.2886753  -0.0000003), wk =   0.0416667
        k(   32) = (  -0.5000000   0.4330129  -0.0000003), wk =   0.0416667
        k(   33) = (  -0.5000000   0.5773506  -0.0000003), wk =   0.0416667
        k(   34) = (  -0.5000000   0.7216882  -0.0000003), wk =   0.0416667
        k(   35) = (  -0.5000000  -0.8660259  -0.0000003), wk =   0.0208333
        k(   36) = (  -0.1250000   0.1443376  -0.0000001), wk =   0.0416667
        k(   37) = (  -0.1250000   0.2886753  -0.0000001), wk =   0.0416667
        k(   38) = (  -0.1250000   0.4330129  -0.0000001), wk =   0.0416667
        k(   39) = (  -0.1250000   0.5773506  -0.0000001), wk =   0.0416667
        k(   40) = (  -0.1250000   0.7216882  -0.0000001), wk =   0.0416667
        k(   41) = (  -0.2500000   0.1443376  -0.0000002), wk =   0.0416667
        k(   42) = (  -0.2500000   0.2886753  -0.0000002), wk =   0.0416667
        k(   43) = (  -0.2500000   0.4330129  -0.0000002), wk =   0.0416667
        k(   44) = (  -0.2500000   0.5773506  -0.0000002), wk =   0.0416667
        k(   45) = (  -0.2500000   0.7216882  -0.0000002), wk =   0.0416667
        k(   46) = (  -0.3750000   0.1443376  -0.0000002), wk =   0.0416667
        k(   47) = (  -0.3750000   0.2886753  -0.0000002), wk =   0.0416667
        k(   48) = (  -0.3750000   0.4330129  -0.0000002), wk =   0.0416667
        k(   49) = (  -0.3750000   0.5773506  -0.0000002), wk =   0.0416667
        k(   50) = (  -0.3750000   0.7216882  -0.0000002), wk =   0.0416667

     Initial potential from superposition of free atoms

     starting charge     285.9971, renormalised to     286.0000

     negative rho (up, down):  2.479E-03 0.000E+00
     Starting wfcs are  234 randomized atomic wfcs
     Checking if some PAW data can be deallocated...

     Self-consistent Calculation

     iteration #  1     ecut=    50.00 Ry     beta= 0.70
     Davidson diagonalization with overlap
     ethr =  1.00E-02,  avg # of iterations =  4.9

     Threshold (ethr) on eigenvalues was too large:
     Diagonalizing with lowered threshold

     Davidson diagonalization with overlap
     ethr =  4.10E-04,  avg # of iterations =  4.5

     negative rho (up, down):  1.690E-03 0.000E+00

     total energy              =  -20152.79664833 Ry
     estimated scf accuracy    <       1.48362544 Ry

     iteration #  2     ecut=    50.00 Ry     beta= 0.70
     Davidson diagonalization with overlap
     c_bands:  1 eigenvalues not converged
     c_bands:  1 eigenvalues not converged
     c_bands:  2 eigenvalues not converged
     c_bands:  2 eigenvalues not converged
     c_bands:  1 eigenvalues not converged
     ethr =  5.19E-04,  avg # of iterations = 16.8

[...]

     iteration # 13     ecut=    50.00 Ry     beta= 0.70
     Davidson diagonalization with overlap
     c_bands:  1 eigenvalues not converged
     c_bands:  1 eigenvalues not converged
     ethr =  4.76E-06,  avg # of iterations = 10.0

[...]

     total energy              =  -20153.50995213 Ry
     estimated scf accuracy    <       0.00000346 Ry

     iteration # 30     ecut=    50.00 Ry     beta= 0.70
     Davidson diagonalization with overlap
     ethr =  4.88E-10,  avg # of iterations =  1.0

[...]

     End of self-consistent calculation

          k = 0.0000 0.0000 0.0000 ( 23605 PWs)   bands (ev):

     1.5093   1.6504   1.8862   2.1897   2.5545   2.9453   3.3220   3.6243
     3.8177   3.8933   3.9446   3.9479   4.0652   4.0701   4.0712   4.2070
     4.2256   4.2848   4.4058   4.4273   4.5091   4.5402   4.5639   4.6007
     4.6518   4.6869   4.7803   4.8823   4.9829   5.0025   5.1651   5.4368
     5.5626   5.7063   5.7560   5.9666   6.1381   6.1414   6.1764   6.2282
     6.2496   6.2680   6.3053   6.3157   6.3164   6.3313   6.3381   6.3527
     6.3532   6.3749   6.3887   6.3985   6.4025   6.4048   6.4224   6.4355
     6.4380   6.4503   6.4697   6.4807   6.5044   6.5234   6.5330   6.5417
     6.5588   6.5599   6.5744   6.5883   6.6318   6.6501   6.6858   6.7091
     6.7520   6.7668   6.8590   6.8690   6.8695   6.8701   6.8706   7.0398
     7.0828   7.1460   7.1806   7.2976   7.4599   7.4709   7.5358   7.5636
     7.6244   7.6848   7.6859   7.6944   7.6991   7.7188   7.7262   7.7657
     7.7908   7.8133   7.8773   7.8926   7.8991   7.9411   8.0181   8.0225
     8.0238   8.1030   8.1760   8.1926   8.3262   8.3632   8.3817   8.3875
     8.4855   8.5122   8.5301   8.5508   8.5711   8.6080   8.6939   8.7035
     8.7100   8.7220   8.7579   8.7601   8.7688   8.7985   8.8050   8.8218
     8.8242   8.8351   8.8403   8.8621   8.8815   8.9020   8.9372   8.9568
     9.0159   9.0306   9.1165   9.2190   9.2197   9.4128  10.2070  10.5098
    10.5655  10.6295  10.9342  11.2500  11.4708  11.6272  11.7292  11.7942
    11.8541  11.8828  11.9287  12.1199  12.1209  13.5358  13.7331  13.9786
    13.9863  14.2898  14.5480  14.8669  14.8883  15.0696  15.3489  15.9002
    16.2331  16.3945  16.4606  16.4705

[...]

          k = 0.3750-0.8660 0.0000 ( 23556 PWs)   bands (ev):

[...]

          k =-0.5000 0.0000-0.0000 ( 23442 PWs)   bands (ev):

[...]

          k =-0.3750 0.7217-0.0000 ( 23544 PWs)   bands (ev):

     3.9050   4.0504   4.1807   4.1846   4.2269   4.3180   4.3203   4.3731
     4.4020   4.4174   4.4736   4.4882   4.5334   4.5335   4.5690   4.6296
     4.6413   4.6496   4.6807   4.6983   4.7021   4.7236   4.7801   4.8078
     4.8293   4.8577   4.8661   4.9484   4.9777   4.9939   5.0580   5.0818
     5.1621   5.1986   5.2232   5.2555   5.4584   5.4738   5.6297   5.7272
     5.8344   5.8886   5.9563   6.0651   6.0799   6.1171   6.1541   6.2037
     6.2346   6.3251   6.3542   6.3675   6.4046   6.4227   6.4646   6.4648
     6.5098   6.5136   6.5798   6.6829   6.6951   6.7407   6.7521   6.7774
     6.8511   6.8733   6.9411   7.0050   7.0834   7.0916   7.1659   7.2064
     7.2770   7.3006   7.4263   7.4401   7.4824   7.5346   7.6198   7.6428
     7.7114   7.8041   7.8179   7.8672   7.9366   7.9701   8.0268   8.0765
     8.1023   8.2190   8.2525   8.3124   8.3127   8.3496   8.3664   8.3785
     8.4729   8.4802   8.5136   8.5208   8.5438   8.5458   8.5677   8.5842
     8.5845   8.5892   8.6092   8.6237   8.6474   8.6623   8.6636   8.6953
     8.6985   8.7104   8.7295   8.7303   8.7468   8.7560   8.7731   8.8028
     8.8304   8.8684   8.8816   8.8912   8.9193   8.9572   8.9641   8.9881
     9.0200   9.0358   9.0426   9.1561   9.3705   9.5116   9.5822   9.7570
    10.2075  10.7913  10.8340  10.8631  11.0658  11.1787  11.3656  11.5859
    11.5890  11.8920  12.2458  12.2838  12.5210  12.7053  12.8100  13.0120
    13.0621  13.0968  13.7232  13.7481  13.8822  14.2749  14.3223  14.4021
    14.4436  14.5447  14.7256  14.9103  14.9142  15.0939  15.2624  15.4494
    15.5419  15.8375  16.0208  16.2941

     the Fermi energy is    10.7310 ev

!    total energy              =  -20153.50995155 Ry

     total all-electron energy =   -988623.508319 Ry
     estimated scf accuracy    <       0.00000084 Ry
     smearing contrib. (-TS)   =      -0.02238045 Ry
     internal energy E=F+TS    =  -20153.48757110 Ry

     The total energy is F=E-TS. E is the sum of the following terms:
     one-electron contribution =   -8804.61240669 Ry
     hartree contribution      =    4727.80152780 Ry
     xc contribution           =    -833.61314973 Ry
     ewald contribution        =    2762.27733688 Ry
     one-center paw contrib.   =  -18005.34087936 Ry

     convergence has been achieved in  30 iterations

     negative rho (up, down):  2.290E-03 0.000E+00

     Forces acting on atoms (cartesian axes, Ry/au):

     atom    1 type  1   force =    -0.00005633   -0.00001432   -0.00311780
     atom    2 type  1   force =     0.00003598   -0.00000886    0.00313114
     atom    3 type  1   force =     0.00007346   -0.00001494    0.00082125
     atom    4 type  1   force =     0.01086820    0.01146058   -0.02438001
     atom    5 type  1   force =    -0.00003891   -0.00000829   -0.00051571
     atom    6 type  1   force =     0.00009810   -0.00000557    0.00440580
     atom    7 type  1   force =    -0.00004113   -0.00004605    0.00094386
     atom    8 type  1   force =    -0.01082804   -0.01150119    0.02512871
     atom    9 type  1   force =    -0.00000356    0.00000123   -0.00001717
     atom   10 type  1   force =     0.00003057   -0.00000486   -0.00157546
     atom   11 type  1   force =    -0.00010798   -0.00000537   -0.00527715
     atom   12 type  1   force =    -0.00012710    0.00092299    0.00134305
     atom   13 type  1   force =     0.00008628   -0.00095057   -0.00090120
     atom   14 type  1   force =     0.00010136   -0.00001094    0.00440305
     atom   15 type  1   force =    -0.00003341    0.00001303    0.00095590
     atom   16 type  1   force =    -0.01083046   -0.01144334    0.02512921
     atom   17 type  1   force =    -0.00000064   -0.00000089   -0.00001650
     atom   18 type  1   force =     0.00002952   -0.00001093   -0.00158009
     atom   19 type  1   force =    -0.00011193    0.00005400   -0.00528419
     atom   20 type  1   force =    -0.00012360    0.00098395    0.00133981
     atom   21 type  1   force =     0.00008897   -0.00094868   -0.00090032
     atom   22 type  1   force =    -0.00005503   -0.00001880   -0.00310845
     atom   23 type  1   force =     0.00004780    0.00005611    0.00313311
     atom   24 type  1   force =     0.00007087    0.00004738    0.00082809
     atom   25 type  1   force =     0.01086784    0.01145805   -0.02437984
     atom   26 type  1   force =    -0.00004083   -0.00000375   -0.00050911

     Total force =     0.059996     Total SCF correction =     0.005333

     Writing all to output data dir ./pwscf.save/

     General routines

     Parallel routines

   This run was terminated on:  22:44: 0  15Feb2024

   JOB DONE.