     Program PWSCF v.7.0 starts on 14Feb2024 at 17:49: 7

     R & G space division:  proc/nbgrp/npool/nimage =      10

     Reading input from GSF111R_0.1.in
Warning: card &CELL ignored
Warning: card / ignored

     Current dimensions of program PWSCF are:
     Max number of different atomic species (ntypx) = 10
     Max number of k-points (npk) =  40000
     Max angular momentum in pseudopotentials (lmaxx) =  4
     file Au.pbe-n-kjpaw_psl.1.0.0.UPF: wavefunction(s)  6S 5D renormalized
     Found identity + ( -0.5000  0.5000  0.0000) symmetry
     This is a supercell, fractional translations are disabled

     Using Slab Decomposition

     bravais-lattice index     =            0
     lattice parameter (alat)  =       9.6360  a.u.
     unit-cell volume          =    3935.2145 (a.u.)^3
     number of atoms/cell      =           26
     number of atomic types    =            1
     number of electrons       =       286.00
     number of Kohn-Sham states=          172
     kinetic-energy cutoff     =      50.0000  Ry
     charge density cutoff     =     200.0000  Ry
     scf convergence threshold =      1.0E-06
     mixing beta               =       0.7000
     number of iterations used =            8  plain     mixing
     energy convergence thresh.=      1.0E-04
     force convergence thresh. =      1.0E-03
     Exchange-correlation= SLA  PW   PBX  PBC
                           (   1   4   3   4   0   0   0)
     nstep                     =           50

     celldm(1)=   9.635999  celldm(2)=   0.000000  celldm(3)=   0.000000
     celldm(4)=   0.000000  celldm(5)=   0.000000  celldm(6)=   0.000000

     crystal axes: (cart. coord. in units of alat)
               a(1) = (   1.000000   0.000000   0.000000 )
               a(2) = (   0.000000   0.577350   0.000000 )
               a(3) = (  -0.000005   0.000000   7.617966 )

     reciprocal axes: (cart. coord. in units 2 pi/alat)
               b(1) = (  1.000000  0.000000  0.000001 )
               b(2) = (  0.000000  1.732052  0.000000 )
               b(3) = (  0.000000  0.000000  0.131269 )

     PseudoPot. # 1 for Au read from file:
     ./Au.pbe-n-kjpaw_psl.1.0.0.UPF
     MD5 check sum: 4db85c736373c707a97ce4c36c2a9d23
     Pseudo is Projector augmented-wave + core cor, Zval = 11.0
     Generated using &quot;atomic&quot; code by A. Dal Corso  v.6.3
     Shape of augmentation charge: PSQ
     Using radial grid of 1279 points,  6 beta functions with:
                l(1) =   0
                l(2) =   0
                l(3) =   1
                l(4) =   1
                l(5) =   2
                l(6) =   2
     Q(r) pseudized with 0 coefficients

     atomic species   valence    mass     pseudopotential
        Au            11.00   196.96657     Au( 1.00)

     No symmetry found

   Cartesian axes

     site n.     atom                  positions (alat units)
         1           Au  tau(   1) = (   0.0000000   0.0000000   0.0000000  )
         2           Au  tau(   2) = (   0.9999954   0.0577351   5.6568550  )
         3           Au  tau(   3) = (   0.9999966   0.0577351   4.2426411  )
         4           Au  tau(   4) = (   0.9999976   0.0000000   2.8284275  )
         5           Au  tau(   5) = (   0.9999988   0.0000000   1.4142138  )
         6           Au  tau(   6) = (   0.3333329   0.0000000   0.4714045  )
         7           Au  tau(   7) = (   0.3333296   0.0577351   4.7140455  )
         8           Au  tau(   8) = (   0.3333308   0.0577351   3.2998319  )
         9           Au  tau(   9) = (   0.3333318   0.0000000   1.8856185  )
        10           Au  tau(  10) = (   0.6666659   0.0000000   0.9428093  )
        11           Au  tau(  11) = (   0.6666625   0.0577351   5.1854506  )
        12           Au  tau(  12) = (   0.6666637   0.0577351   3.7712367  )
        13           Au  tau(  13) = (   0.6666649   0.0000000   2.3570234  )
        14           Au  tau(  14) = (   0.8333330   0.2886749   0.4714045  )
        15           Au  tau(  15) = (   0.8333294   0.3464100   4.7140455  )
        16           Au  tau(  16) = (   0.8333306   0.3464100   3.2998319  )
        17           Au  tau(  17) = (   0.8333318   0.2886749   1.8856185  )
        18           Au  tau(  18) = (   0.1666658   0.2886749   0.9428093  )
        19           Au  tau(  19) = (   0.1666624   0.3464100   5.1854506  )
        20           Au  tau(  20) = (   0.1666636   0.3464100   3.7712367  )
        21           Au  tau(  21) = (   0.1666648   0.2886749   2.3570234  )
        22           Au  tau(  22) = (   0.5000001   0.2886749   0.0000000  )
        23           Au  tau(  23) = (   0.4999955   0.3464100   5.6568550  )
        24           Au  tau(  24) = (   0.4999965   0.3464100   4.2426411  )
        25           Au  tau(  25) = (   0.4999977   0.2886749   2.8284275  )
        26           Au  tau(  26) = (   0.4999989   0.2886749   1.4142138  )

     number of k points=    50  Gaussian smearing, width (Ry)=  0.0020
                       cart. coord. in units 2pi/alat
        k(    1) = (   0.0000000   0.0000000   0.0000000), wk =   0.0208333
        k(    2) = (   0.0000000   0.1443376   0.0000000), wk =   0.0416667
        k(    3) = (   0.0000000   0.2886753   0.0000000), wk =   0.0416667
        k(    4) = (   0.0000000   0.4330129   0.0000000), wk =   0.0416667
        k(    5) = (   0.0000000   0.5773506   0.0000000), wk =   0.0416667
        k(    6) = (   0.0000000   0.7216882   0.0000000), wk =   0.0416667
        k(    7) = (   0.0000000  -0.8660259   0.0000000), wk =   0.0208333
        k(    8) = (   0.1250000   0.0000000   0.0000001), wk =   0.0416667
        k(    9) = (   0.1250000   0.1443376   0.0000001), wk =   0.0416667
        k(   10) = (   0.1250000   0.2886753   0.0000001), wk =   0.0416667
        k(   11) = (   0.1250000   0.4330129   0.0000001), wk =   0.0416667
        k(   12) = (   0.1250000   0.5773506   0.0000001), wk =   0.0416667
        k(   13) = (   0.1250000   0.7216882   0.0000001), wk =   0.0416667
        k(   14) = (   0.1250000  -0.8660259   0.0000001), wk =   0.0416667
        k(   15) = (   0.1250000  -0.7216882   0.0000001), wk =   0.0416667
        k(   16) = (   0.1250000  -0.5773506   0.0000001), wk =   0.0416667
        k(   17) = (   0.1250000  -0.4330129   0.0000001), wk =   0.0416667
        k(   18) = (   0.1250000  -0.2886753   0.0000001), wk =   0.0416667
        k(   19) = (   0.1250000  -0.1443376   0.0000001), wk =   0.0416667
        k(   20) = (   0.2500000   0.0000000   0.0000002), wk =   0.0416667
        k(   21) = (   0.2500000   0.1443376   0.0000002), wk =   0.0416667
        k(   22) = (   0.2500000   0.2886753   0.0000002), wk =   0.0416667
        k(   23) = (   0.2500000   0.4330129   0.0000002), wk =   0.0416667
        k(   24) = (   0.2500000   0.5773506   0.0000002), wk =   0.0416667
        k(   25) = (   0.2500000   0.7216882   0.0000002), wk =   0.0416667
        k(   26) = (   0.2500000  -0.8660259   0.0000002), wk =   0.0416667
        k(   27) = (   0.2500000  -0.7216882   0.0000002), wk =   0.0416667
        k(   28) = (   0.2500000  -0.5773506   0.0000002), wk =   0.0416667
        k(   29) = (   0.2500000  -0.4330129   0.0000002), wk =   0.0416667
        k(   30) = (   0.2500000  -0.2886753   0.0000002), wk =   0.0416667
        k(   31) = (   0.2500000  -0.1443376   0.0000002), wk =   0.0416667
        k(   32) = (   0.3750000   0.0000000   0.0000002), wk =   0.0416667
        k(   33) = (   0.3750000   0.1443376   0.0000002), wk =   0.0416667
        k(   34) = (   0.3750000   0.2886753   0.0000002), wk =   0.0416667
        k(   35) = (   0.3750000   0.4330129   0.0000002), wk =   0.0416667
        k(   36) = (   0.3750000   0.5773506   0.0000002), wk =   0.0416667
        k(   37) = (   0.3750000   0.7216882   0.0000002), wk =   0.0416667
        k(   38) = (   0.3750000  -0.8660259   0.0000002), wk =   0.0416667
        k(   39) = (   0.3750000  -0.7216882   0.0000002), wk =   0.0416667
        k(   40) = (   0.3750000  -0.5773506   0.0000002), wk =   0.0416667
        k(   41) = (   0.3750000  -0.4330129   0.0000002), wk =   0.0416667
        k(   42) = (   0.3750000  -0.2886753   0.0000002), wk =   0.0416667
        k(   43) = (   0.3750000  -0.1443376   0.0000002), wk =   0.0416667
        k(   44) = (  -0.5000000   0.0000000  -0.0000003), wk =   0.0208333
        k(   45) = (  -0.5000000   0.1443376  -0.0000003), wk =   0.0416667
        k(   46) = (  -0.5000000   0.2886753  -0.0000003), wk =   0.0416667
        k(   47) = (  -0.5000000   0.4330129  -0.0000003), wk =   0.0416667
        k(   48) = (  -0.5000000   0.5773506  -0.0000003), wk =   0.0416667
        k(   49) = (  -0.5000000   0.7216882  -0.0000003), wk =   0.0416667
        k(   50) = (  -0.5000000  -0.8660259  -0.0000003), wk =   0.0208333

     Initial potential from superposition of free atoms

     starting charge     285.9971, renormalised to     286.0000

     negative rho (up, down):  2.404E-03 0.000E+00
     Starting wfcs are  234 randomized atomic wfcs
     Checking if some PAW data can be deallocated...

     Self-consistent Calculation

     iteration #  1     ecut=    50.00 Ry     beta= 0.70
     Davidson diagonalization with overlap
     ethr =  1.00E-02,  avg # of iterations =  4.8

     Threshold (ethr) on eigenvalues was too large:
     Diagonalizing with lowered threshold

     Davidson diagonalization with overlap
     ethr =  3.97E-04,  avg # of iterations =  4.8

     negative rho (up, down):  1.662E-03 0.000E+00

     total energy              =  -20152.82954187 Ry
     estimated scf accuracy    <       1.44772832 Ry

     iteration #  2     ecut=    50.00 Ry     beta= 0.70
     Davidson diagonalization with overlap
     c_bands:  1 eigenvalues not converged
     c_bands:  3 eigenvalues not converged
     ethr =  5.06E-04,  avg # of iterations = 16.5

[...]

     iteration # 16     ecut=    50.00 Ry     beta= 0.70
     Davidson diagonalization with overlap
     c_bands:  1 eigenvalues not converged
     c_bands:  1 eigenvalues not converged
     ethr =  6.03E-06,  avg # of iterations = 12.6

[...]

     total energy              =  -20153.51204556 Ry
     estimated scf accuracy    <       0.00000109 Ry

     iteration # 29     ecut=    50.00 Ry     beta= 0.70
     Davidson diagonalization with overlap
     ethr =  3.81E-10,  avg # of iterations =  2.0

[...]

     End of self-consistent calculation

          k = 0.0000 0.0000 0.0000 ( 23605 PWs)   bands (ev):

     1.5100   1.6549   1.8880   2.1942   2.5537   2.9456   3.3227   3.6272
     3.8147   3.8984   3.9260   3.9607   4.0713   4.0764   4.0772   4.2108
     4.2369   4.2919   4.4119   4.4349   4.5054   4.5402   4.5726   4.6067
     4.6651   4.7036   4.7141   4.8830   4.9832   5.0042   5.1606   5.4420
     5.7284   5.9205   5.9986   6.0534   6.1548   6.1589   6.1913   6.2405
     6.2529   6.2809   6.3144   6.3221   6.3238   6.3287   6.3512   6.3569
     6.3588   6.3671   6.3972   6.3980   6.4086   6.4110   6.4201   6.4254
     6.4370   6.4698   6.4790   6.4867   6.4951   6.5241   6.5372   6.5431
     6.5607   6.5643   6.5842   6.5900   6.6048   6.6109   6.6463   6.7366
     6.7449   6.7464   6.8224   6.8726   6.8729   6.8733   6.8736   7.0215
     7.0713   7.1404   7.1709   7.2767   7.4800   7.5107   7.5659   7.5801
     7.6429   7.6848   7.6911   7.6957   7.7092   7.7201   7.7441   7.7713
     7.7984   7.8092   7.8580   7.8688   7.8929   7.9555   8.0044   8.0111
     8.0434   8.1198   8.1709   8.1854   8.3160   8.3686   8.3838   8.3916
     8.4846   8.5195   8.5274   8.5651   8.5728   8.6205   8.7000   8.7031
     8.7084   8.7371   8.7634   8.7650   8.7783   8.8006   8.8074   8.8240
     8.8251   8.8410   8.8468   8.8668   8.8875   8.9089   8.9456   8.9709
     9.0221   9.0311   9.0871   9.2222   9.2227   9.4065  10.2064  10.5087
    10.5643  10.6303  10.9348  11.2458  11.4727  11.6283  11.7316  11.8013
    11.8548  11.8908  11.9206  12.1243  12.1250  13.5584  13.7376  13.9426
    14.0027  14.2920  14.5546  14.8686  14.8904  15.0612  15.3555  15.9026
    16.2002  16.3786  16.4735  16.5727

[...]

          k = 0.3750-0.1443 0.0000 ( 23495 PWs)   bands (ev):

[...]

          k =-0.5000 0.0000-0.0000 ( 23442 PWs)   bands (ev):

[...]

          k =-0.5000-0.8660-0.0000 ( 23552 PWs)   bands (ev):

     3.9415   3.9810   4.0687   4.0688   4.1974   4.2185   4.2218   4.2503
     4.2922   4.2940   4.3969   4.4060   4.4367   4.4401   4.4903   4.4979
     4.5361   4.5409   4.5699   4.5707   4.6010   4.6117   4.6528   4.6637
     4.6911   4.6928   4.7206   4.7262   4.8817   4.8848   4.9824   4.9843
     5.0052   5.0055   5.1588   5.1590   5.4388   5.4404   5.7165   5.7323
     5.9300   5.9388   6.0231   6.0809   6.1608   6.1651   6.2087   6.2279
     6.3096   6.3174   6.3219   6.3238   6.3723   6.3797   6.4310   6.4320
     6.5601   6.6001   6.6948   6.7243   6.7698   6.7735   6.8097   6.8227
     6.9968   7.0126   7.0484   7.0747   7.1432   7.1508   7.2641   7.2697
     7.4657   7.4764   7.5529   7.5555   7.5867   7.6052   7.8457   7.8494
     7.9227   7.9690   8.0541   8.0632   8.1206   8.1316   8.3763   8.3793
     8.3855   8.3861   8.4942   8.5006   8.5759   8.5895   8.6843   8.7006
     8.7013   8.7279   8.7428   8.7448   8.7787   8.8043   8.8076   8.8097
     8.8173   8.8330   8.8421   8.8476   8.8484   8.8504   8.8674   8.8703
     8.8887   8.8921   8.9096   8.9183   8.9479   8.9502   8.9733   8.9860
     9.0212   9.0251   9.0281   9.0327   9.0657   9.0771   9.2220   9.2223
     9.2226   9.2229  10.1765  10.2580  10.5546  10.5649  10.9106  10.9674
    11.2133  11.2525  11.4650  11.4675  11.5863  11.6330  11.6925  11.7385
    11.7747  11.8020  11.8265  11.8728  11.8837  11.8913  11.9052  12.1230
    12.1238  12.1241  12.1245  12.1933  13.4131  13.6302  13.7285  13.7502
    13.9239  14.0806  14.2718  14.3134  14.5034  14.6109  14.8540  14.9314
    15.2829  15.4322  15.8378  15.9682

     the Fermi energy is    10.7391 ev

!    total energy              =  -20153.51204539 Ry

     total all-electron energy =   -988623.510413 Ry
     estimated scf accuracy    <       0.00000033 Ry
     smearing contrib. (-TS)   =      -0.00035156 Ry
     internal energy E=F+TS    =  -20153.51169383 Ry

     The total energy is F=E-TS. E is the sum of the following terms:
     one-electron contribution =   -8804.08978211 Ry
     hartree contribution      =    4727.60627623 Ry
     xc contribution           =    -833.60201625 Ry
     ewald contribution        =    2761.90826088 Ry
     one-center paw contrib.   =  -18005.33443260 Ry

     convergence has been achieved in  29 iterations

     negative rho (up, down):  2.254E-03 0.000E+00

     Forces acting on atoms (cartesian axes, Ry/au):

     atom    1 type  1   force =    -0.00005768    0.00003786   -0.00326311
     atom    2 type  1   force =     0.00004374   -0.00003591    0.00357526
     atom    3 type  1   force =     0.00004906    0.00003208    0.00028481
     atom    4 type  1   force =     0.00195093    0.00548185   -0.00420038
     atom    5 type  1   force =    -0.00004252   -0.00001227   -0.00018510
     atom    6 type  1   force =     0.00001307    0.00001658    0.00480802
     atom    7 type  1   force =    -0.00007909   -0.00000517    0.00170165
     atom    8 type  1   force =    -0.00186941   -0.00551989    0.00418801
     atom    9 type  1   force =     0.00000291   -0.00002049   -0.00052054
     atom   10 type  1   force =     0.00007966    0.00000371   -0.00206771
     atom   11 type  1   force =    -0.00001133   -0.00001610   -0.00490063
     atom   12 type  1   force =    -0.00003411    0.00055979    0.00078965
     atom   13 type  1   force =    -0.00005591   -0.00052422   -0.00020672
     atom   14 type  1   force =     0.00000370    0.00001862    0.00481363
     atom   15 type  1   force =    -0.00007470   -0.00000749    0.00169808
     atom   16 type  1   force =    -0.00186848   -0.00551936    0.00418623
     atom   17 type  1   force =     0.00000448   -0.00002222   -0.00051755
     atom   18 type  1   force =     0.00007342    0.00000460   -0.00206612
     atom   19 type  1   force =    -0.00000855   -0.00001371   -0.00489965
     atom   20 type  1   force =    -0.00003651    0.00055867    0.00078773
     atom   21 type  1   force =    -0.00005005   -0.00052241   -0.00020232
     atom   22 type  1   force =    -0.00005190    0.00003721   -0.00326506
     atom   23 type  1   force =     0.00006031   -0.00003824    0.00357483
     atom   24 type  1   force =     0.00004658    0.00003527    0.00028688
     atom   25 type  1   force =     0.00195231    0.00547928   -0.00420560
     atom   26 type  1   force =    -0.00003994   -0.00000804   -0.00019429

     Total force =     0.015100     Total SCF correction =     0.003705
     SCF correction compared to forces is large: reduce conv_thr to get better values
     Message from routine bfgs:
     history already reset at previous step: exiting
     Energy error            =      2.7E-03 Ry
     Gradient error          =      4.9E-03 Ry/Bohr

     bfgs converged in   4 scf cycles and   1 bfgs steps
     (criteria: energy <  1.0E-04 Ry, force <  1.0E-03 Ry/Bohr)

     End of BFGS Geometry Optimization

     Final energy             =  -20153.5120453877 Ry

     File ./pwscf.bfgs deleted, as requested
Begin final coordinates

ATOMIC_POSITIONS (angstrom)
Au            0.0000000000        0.0000000000        0.0000000000    0   0   1
Au            5.0991277561        0.2944000000       28.8451587017    0   0   1
Au            5.0991339819        0.2944000000       21.6338681730    0   0   1
Au            5.0991389889        0.0000000000       14.4225793509    0   0   1
Au            5.0991452147        0.0000000000        7.2112897049    0   0   1
Au            1.6997150733        0.0000000000        2.4037630192    0   0   1
Au            1.6996977676        0.2944000000       24.0376304861    0   0   1
Au            1.6997039934        0.2944000000       16.8263417228    0   0   1
Au            1.6997090005        0.0000000000        9.6150537833    0   0   1
Au            3.3994301414        0.0000000000        4.8075268622    0   0   1
Au            3.3994129888        0.2944000000       26.4413963887    0   0   1
Au            3.3994189086        0.2944000000       19.2301058012    0   0   1
Au            3.3994248284        0.0000000000       12.0188187443    0   0   1
Au            4.2492909414        1.4719970299        2.4037630192    0   0   1
Au            4.2492725751        1.7663970299       24.0376304861    0   0   1
Au            4.2492788009        1.7663970299       16.8263417228    0   0   1
Au            4.2492850215        1.4719970299        9.6150537833    0   0   1
Au            0.8498539674        1.4719970299        4.8075268622    0   0   1
Au            0.8498368147        1.7663970299       26.4413963887    0   0   1
Au            0.8498428875        1.7663970299       19.2301058012    0   0   1
Au            0.8498488838        1.4719970299       12.0188187443    0   0   1
Au            2.5495761740        1.4719970299        0.0000000000    0   0   1
Au            2.5495526478        1.7663970299       28.8451587017    0   0   1
Au            2.5495578078        1.7663970299       21.6338681730    0   0   1
Au            2.5495637276        1.4719970299       14.4225793509    0   0   1
Au            2.5495699534        1.4719970299        7.2112897049    0   0   1
End final coordinates

     Writing all to output data dir ./pwscf.save/

     General routines

     Parallel routines

   This run was terminated on:  18:23:59  14Feb2024

   JOB DONE.