     Program PWSCF v.7.0 starts on  3Dec2023 at  9: 2:54

     K-points division:     npool     =       2
     R & G space division:  proc/nbgrp/npool/nimage =       5

     Reading input from elasticFCC13.in
Warning: card &CELL ignored
Warning: card / ignored

     Current dimensions of program PWSCF are:
     Max number of different atomic species (ntypx) = 10
     Max number of k-points (npk) =  40000
     Max angular momentum in pseudopotentials (lmaxx) =  4
     file Au.pbe-n-kjpaw_psl.1.0.0.UPF: wavefunction(s)  6S 5D renormalized

     Using Slab Decomposition

     bravais-lattice index     =            0
     lattice parameter (alat)  =       8.1654  a.u.
     unit-cell volume          =     485.0629 (a.u.)^3
     number of atoms/cell      =            4
     number of atomic types    =            1
     number of electrons       =        44.00
     number of Kohn-Sham states=           26
     kinetic-energy cutoff     =      50.0000  Ry
     charge density cutoff     =     576.0000  Ry
     scf convergence threshold =      1.0E-06
     mixing beta               =       0.7000
     number of iterations used =            8  plain     mixing
     Exchange-correlation= SLA  PW   PBX  PBC
                           (   1   4   3   4   0   0   0)

     celldm(1)=   8.165414  celldm(2)=   0.000000  celldm(3)=   0.000000
     celldm(4)=   0.000000  celldm(5)=   0.000000  celldm(6)=   0.000000

     crystal axes: (cart. coord. in units of alat)
               a(1) = (   1.000000   0.000000   0.000000 )
               a(2) = (   0.000000   0.948850   0.000000 )
               a(3) = (   0.000000   0.000000   0.939001 )

     reciprocal axes: (cart. coord. in units 2 pi/alat)
               b(1) = (  1.000000  0.000000  0.000000 )
               b(2) = (  0.000000  1.053908  0.000000 )
               b(3) = (  0.000000  0.000000  1.064962 )

     PseudoPot. # 1 for Au read from file:
     ./Au.pbe-n-kjpaw_psl.1.0.0.UPF
     MD5 check sum: 4db85c736373c707a97ce4c36c2a9d23
     Pseudo is Projector augmented-wave + core cor, Zval = 11.0
     Generated using &quot;atomic&quot; code by A. Dal Corso  v.6.3
     Shape of augmentation charge: PSQ
     Using radial grid of 1279 points,  6 beta functions with:
                l(1) =   0
                l(2) =   0
                l(3) =   1
                l(4) =   1
                l(5) =   2
                l(6) =   2
     Q(r) pseudized with 0 coefficients

     atomic species   valence    mass     pseudopotential
        Au            11.00   196.96657     Au( 1.00)

     No symmetry found

   Cartesian axes

     site n.     atom                  positions (alat units)
         1           Au  tau(   1) = (   0.0000000   0.0000000   0.0000000  )
         2           Au  tau(   2) = (   0.0000000   0.4817732   0.4817732  )
         3           Au  tau(   3) = (   0.4817732   0.0000000   0.4817732  )
         4           Au  tau(   4) = (   0.4817732   0.4817732   0.0000000  )

     number of k points=   260  Gaussian smearing, width (Ry)=  0.0020

     Number of k-points >= 100: set verbosity='high' to print them.

     Initial potential from superposition of free atoms

     starting charge      43.9996, renormalised to      44.0000
     Starting wfcs are   36 randomized atomic wfcs
     Checking if some PAW data can be deallocated...

     Self-consistent Calculation

     iteration #  1     ecut=    50.00 Ry     beta= 0.70
     Davidson diagonalization with overlap
     ethr =  1.00E-02,  avg # of iterations =  2.9

     Threshold (ethr) on eigenvalues was too large:
     Diagonalizing with lowered threshold

     Davidson diagonalization with overlap
     ethr =  2.83E-04,  avg # of iterations =  4.5

     total energy              =   -3100.48531257 Ry
     estimated scf accuracy    <       0.18302489 Ry

[...]

     iteration #  4     ecut=    50.00 Ry     beta= 0.70
     Davidson diagonalization with overlap
     c_bands:  1 eigenvalues not converged
     ethr =  4.10E-06,  avg # of iterations =  6.4

[...]

     iteration #  5     ecut=    50.00 Ry     beta= 0.70
     Davidson diagonalization with overlap
     c_bands:  1 eigenvalues not converged
     ethr =  1.74E-06,  avg # of iterations =  3.3

[...]

     total energy              =   -3100.55036030 Ry
     estimated scf accuracy    <       0.00000368 Ry

     iteration # 10     ecut=    50.00 Ry     beta= 0.70
     Davidson diagonalization with overlap
     ethr =  5.59E-09,  avg # of iterations =  3.8

     End of self-consistent calculation

     Number of k-points >= 100: set verbosity='high' to print the bands.

     the Fermi energy is    14.7565 ev

!    total energy              =   -3100.55036097 Ry

     total all-electron energy =   -152095.934725 Ry
     estimated scf accuracy    <       0.00000019 Ry
     smearing contrib. (-TS)   =      -0.00004203 Ry
     internal energy E=F+TS    =   -3100.55031895 Ry

     The total energy is F=E-TS. E is the sum of the following terms:
     one-electron contribution =      47.04125482 Ry
     hartree contribution      =      32.87988192 Ry
     xc contribution           =    -128.31437527 Ry
     ewald contribution        =    -282.09258377 Ry
     one-center paw contrib.   =   -2770.06449664 Ry

     convergence has been achieved in  10 iterations

     Forces acting on atoms (cartesian axes, Ry/au):

     atom    1 type  1   force =    -0.01946527    0.00906340    0.01520575
     atom    2 type  1   force =    -0.01944916   -0.00906825   -0.01520310
     atom    3 type  1   force =     0.01945962    0.00907586   -0.01521798
     atom    4 type  1   force =     0.01945481   -0.00907101    0.01521533

     Total force =     0.052619     Total SCF correction =     0.000133

     Writing all to output data dir ./pwscf.save/

     General routines

     Parallel routines

   This run was terminated on:   9: 3:51   3Dec2023

   JOB DONE.