     Program PWSCF v.7.0 starts on  3Dec2023 at  8:50:16

     K-points division:     npool     =       2
     R & G space division:  proc/nbgrp/npool/nimage =       5

     Reading input from elasticFCC0.in
Warning: card &CELL ignored
Warning: card / ignored

     Current dimensions of program PWSCF are:
     Max number of different atomic species (ntypx) = 10
     Max number of k-points (npk) =  40000
     Max angular momentum in pseudopotentials (lmaxx) =  4
     file Au.pbe-n-kjpaw_psl.1.0.0.UPF: wavefunction(s)  6S 5D renormalized

     Using Slab Decomposition

     bravais-lattice index     =            0
     lattice parameter (alat)  =       8.2544  a.u.
     unit-cell volume          =     528.9746 (a.u.)^3
     number of atoms/cell      =            4
     number of atomic types    =            1
     number of electrons       =        44.00
     number of Kohn-Sham states=           26
     kinetic-energy cutoff     =      50.0000  Ry
     charge density cutoff     =     576.0000  Ry
     scf convergence threshold =      1.0E-06
     mixing beta               =       0.7000
     number of iterations used =            8  plain     mixing
     Exchange-correlation= SLA  PW   PBX  PBC
                           (   1   4   3   4   0   0   0)

     celldm(1)=   8.254363  celldm(2)=   0.000000  celldm(3)=   0.000000
     celldm(4)=   0.000000  celldm(5)=   0.000000  celldm(6)=   0.000000

     crystal axes: (cart. coord. in units of alat)
               a(1) = (   1.000000   0.000000   0.000000 )
               a(2) = (   0.000000   0.941234   0.000000 )
               a(3) = (   0.000000   0.000000   0.999278 )

     reciprocal axes: (cart. coord. in units 2 pi/alat)
               b(1) = (  1.000000  0.000000  0.000000 )
               b(2) = (  0.000000  1.062435  0.000000 )
               b(3) = (  0.000000  0.000000  1.000723 )

     PseudoPot. # 1 for Au read from file:
     ./Au.pbe-n-kjpaw_psl.1.0.0.UPF
     MD5 check sum: 4db85c736373c707a97ce4c36c2a9d23
     Pseudo is Projector augmented-wave + core cor, Zval = 11.0
     Generated using &quot;atomic&quot; code by A. Dal Corso  v.6.3
     Shape of augmentation charge: PSQ
     Using radial grid of 1279 points,  6 beta functions with:
                l(1) =   0
                l(2) =   0
                l(3) =   1
                l(4) =   1
                l(5) =   2
                l(6) =   2
     Q(r) pseudized with 0 coefficients

     atomic species   valence    mass     pseudopotential
        Au            11.00   196.96657     Au( 1.00)

     No symmetry found

   Cartesian axes

     site n.     atom                  positions (alat units)
         1           Au  tau(   1) = (   0.0000000   0.0000000   0.0000000  )
         2           Au  tau(   2) = (   0.0000000   0.4765816   0.4765816  )
         3           Au  tau(   3) = (   0.4765816   0.0000000   0.4765816  )
         4           Au  tau(   4) = (   0.4765816   0.4765816   0.0000000  )

     number of k points=   260  Gaussian smearing, width (Ry)=  0.0020

     Number of k-points >= 100: set verbosity='high' to print them.

     Initial potential from superposition of free atoms

     starting charge      43.9996, renormalised to      44.0000
     Starting wfcs are   36 randomized atomic wfcs
     Checking if some PAW data can be deallocated...

     Self-consistent Calculation

     iteration #  1     ecut=    50.00 Ry     beta= 0.70
     Davidson diagonalization with overlap
     ethr =  1.00E-02,  avg # of iterations =  2.9

     Threshold (ethr) on eigenvalues was too large:
     Diagonalizing with lowered threshold

     Davidson diagonalization with overlap
     ethr =  2.98E-04,  avg # of iterations =  3.9

     total energy              =   -3100.46957370 Ry
     estimated scf accuracy    <       0.17999541 Ry

[...]

     iteration #  4     ecut=    50.00 Ry     beta= 0.70
     Davidson diagonalization with overlap
     c_bands:  1 eigenvalues not converged
     c_bands:  1 eigenvalues not converged
     ethr =  3.90E-06,  avg # of iterations =  6.4

[...]

     iteration #  8     ecut=    50.00 Ry     beta= 0.70
     Davidson diagonalization with overlap
     c_bands:  1 eigenvalues not converged
     ethr =  3.49E-09,  avg # of iterations = 11.1

[...]

     total energy              =   -3100.53564866 Ry
     estimated scf accuracy    <       0.00000102 Ry

     iteration # 11     ecut=    50.00 Ry     beta= 0.70
     Davidson diagonalization with overlap
     ethr =  2.31E-09,  avg # of iterations =  3.4

     End of self-consistent calculation

     Number of k-points >= 100: set verbosity='high' to print the bands.

     the Fermi energy is    12.8883 ev

!    total energy              =   -3100.53564903 Ry

     total all-electron energy =   -152095.920013 Ry
     estimated scf accuracy    <       0.00000002 Ry
     smearing contrib. (-TS)   =      -0.00002016 Ry
     internal energy E=F+TS    =   -3100.53562887 Ry

     The total energy is F=E-TS. E is the sum of the following terms:
     one-electron contribution =      34.90924118 Ry
     hartree contribution      =      36.42295719 Ry
     xc contribution           =    -128.08842249 Ry
     ewald contribution        =    -273.75762563 Ry
     one-center paw contrib.   =   -2770.02177911 Ry

     convergence has been achieved in  11 iterations

     Forces acting on atoms (cartesian axes, Ry/au):

     atom    1 type  1   force =    -0.01544290    0.00461828   -0.01525721
     atom    2 type  1   force =    -0.01545447   -0.00461747    0.01526071
     atom    3 type  1   force =     0.01544828    0.00461728    0.01526116
     atom    4 type  1   force =     0.01544909   -0.00461809   -0.01526466

     Total force =     0.044402     Total SCF correction =     0.000244

     Writing all to output data dir ./pwscf.save/

     General routines

     Parallel routines

   This run was terminated on:   8:51:20   3Dec2023

   JOB DONE.