     Program PWSCF v.7.0 starts on 17Mar2024 at 11: 6:10

     R & G space division:  proc/nbgrp/npool/nimage =      10

     Reading input from GSF110R_0.25.in
Warning: card &CELL ignored
Warning: card / ignored

     Current dimensions of program PWSCF are:
     Max number of different atomic species (ntypx) = 10
     Max number of k-points (npk) =  40000
     Max angular momentum in pseudopotentials (lmaxx) =  4
     file Au.pbe-n-kjpaw_psl.1.0.0.UPF: wavefunction(s)  6S 5D renormalized
     Found identity + (  0.0000 -0.5000  0.0000) symmetry
     This is a supercell, fractional translations are disabled

     Using Slab Decomposition

     bravais-lattice index     =            0
     lattice parameter (alat)  =       7.7101  a.u.
     unit-cell volume          =    2979.1368 (a.u.)^3
     number of atoms/cell      =           28
     number of atomic types    =            1
     number of electrons       =       308.00
     number of Kohn-Sham states=          185
     kinetic-energy cutoff     =      50.0000  Ry
     charge density cutoff     =     200.0000  Ry
     scf convergence threshold =      1.0E-06
     mixing beta               =       0.1000
     number of iterations used =            8  plain     mixing
     energy convergence thresh.=      1.0E-04
     force convergence thresh. =      1.0E-03
     Exchange-correlation= SLA  PW   PBX  PBC
                           (   1   4   3   4   0   0   0)
     nstep                     =           50

     celldm(1)=   7.710083  celldm(2)=   0.000000  celldm(3)=   0.000000
     celldm(4)=   0.000000  celldm(5)=   0.000000  celldm(6)=   0.000000

     crystal axes: (cart. coord. in units of alat)
               a(1) = (   1.000000   0.000000   0.000000 )
               a(2) = (   0.000000   1.414214   0.000000 )
               a(3) = (   0.000000   0.000000   4.596194 )

     reciprocal axes: (cart. coord. in units 2 pi/alat)
               b(1) = (  1.000000  0.000000  0.000000 )
               b(2) = (  0.000000  0.707107  0.000000 )
               b(3) = (  0.000000  0.000000  0.217571 )

     PseudoPot. # 1 for Au read from file:
     ./Au.pbe-n-kjpaw_psl.1.0.0.UPF
     MD5 check sum: 4db85c736373c707a97ce4c36c2a9d23
     Pseudo is Projector augmented-wave + core cor, Zval = 11.0
     Generated using &quot;atomic&quot; code by A. Dal Corso  v.6.3
     Shape of augmentation charge: PSQ
     Using radial grid of 1279 points,  6 beta functions with:
                l(1) =   0
                l(2) =   0
                l(3) =   1
                l(4) =   1
                l(5) =   2
                l(6) =   2
     Q(r) pseudized with 0 coefficients

     atomic species   valence    mass     pseudopotential
        Au            11.00   196.96657     Au( 1.00)

     No symmetry found

   Cartesian axes

     site n.     atom                  positions (alat units)
         1           Au  tau(   1) = (   0.5000000   0.3535534   0.0000000  )
         2           Au  tau(   2) = (   0.5000000   1.0606602   0.0000000  )
         3           Au  tau(   3) = (   0.0000000   0.0000000   0.3535534  )
         4           Au  tau(   4) = (   0.0000000   0.7071068   0.3535534  )
         5           Au  tau(   5) = (   0.5000000   0.3535534   0.7071068  )
         6           Au  tau(   6) = (   0.5000000   1.0606602   0.7071068  )
         7           Au  tau(   7) = (   0.0000000   0.0000000   1.0606602  )
         8           Au  tau(   8) = (   0.0000000   0.7071068   1.0606602  )
         9           Au  tau(   9) = (   0.5000000   0.3535534   1.4142136  )
        10           Au  tau(  10) = (   0.5000000   1.0606602   1.4142136  )
        11           Au  tau(  11) = (   0.0000000   0.0000000   1.7677670  )
        12           Au  tau(  12) = (   0.0000000   0.7071068   1.7677670  )
        13           Au  tau(  13) = (   0.5000000   0.3535534   2.1213203  )
        14           Au  tau(  14) = (   0.5000000   1.0606602   2.1213203  )
        15           Au  tau(  15) = (   0.0000000   0.0000000   2.4748737  )
        16           Au  tau(  16) = (   0.0000000   0.7071068   2.4748737  )
        17           Au  tau(  17) = (   0.7500000   0.3535534   2.8284271  )
        18           Au  tau(  18) = (   0.7500000   1.0606602   2.8284271  )
        19           Au  tau(  19) = (   0.2500000   0.0000000   3.1819805  )
        20           Au  tau(  20) = (   0.2500000   0.7071068   3.1819805  )
        21           Au  tau(  21) = (   0.7500000   0.3535534   3.5355339  )
        22           Au  tau(  22) = (   0.7500000   1.0606602   3.5355339  )
        23           Au  tau(  23) = (   0.2500000   0.0000000   3.8890873  )
        24           Au  tau(  24) = (   0.2500000   0.7071068   3.8890873  )
        25           Au  tau(  25) = (   0.7500000   0.3535534   4.2426407  )
        26           Au  tau(  26) = (   0.7500000   1.0606602   4.2426407  )
        27           Au  tau(  27) = (   0.2500000   0.0000000   4.5961941  )
        28           Au  tau(  28) = (   0.2500000   0.7071068   4.5961941  )

     number of k points=    50  Gaussian smearing, width (Ry)=  0.2000
                       cart. coord. in units 2pi/alat
        k(    1) = (   0.0000000   0.0000000   0.0000000), wk =   0.0208333
        k(    2) = (   0.0000000   0.0589256   0.0000000), wk =   0.0416667
        k(    3) = (   0.0000000   0.1178511   0.0000000), wk =   0.0416667
        k(    4) = (   0.0000000   0.1767767   0.0000000), wk =   0.0416667
        k(    5) = (   0.0000000   0.2357023   0.0000000), wk =   0.0416667
        k(    6) = (   0.0000000   0.2946278   0.0000000), wk =   0.0416667
        k(    7) = (   0.0000000  -0.3535534   0.0000000), wk =   0.0208333
        k(    8) = (   0.1250000   0.0000000   0.0000000), wk =   0.0416667
        k(    9) = (   0.1250000   0.0589256   0.0000000), wk =   0.0416667
        k(   10) = (   0.1250000   0.1178511   0.0000000), wk =   0.0416667
        k(   11) = (   0.1250000   0.1767767   0.0000000), wk =   0.0416667
        k(   12) = (   0.1250000   0.2357023   0.0000000), wk =   0.0416667
        k(   13) = (   0.1250000   0.2946278   0.0000000), wk =   0.0416667
        k(   14) = (   0.1250000  -0.3535534   0.0000000), wk =   0.0416667
        k(   15) = (   0.1250000  -0.2946278   0.0000000), wk =   0.0416667
        k(   16) = (   0.1250000  -0.2357023   0.0000000), wk =   0.0416667
        k(   17) = (   0.1250000  -0.1767767   0.0000000), wk =   0.0416667
        k(   18) = (   0.1250000  -0.1178511   0.0000000), wk =   0.0416667
        k(   19) = (   0.1250000  -0.0589256   0.0000000), wk =   0.0416667
        k(   20) = (   0.2500000   0.0000000   0.0000000), wk =   0.0416667
        k(   21) = (   0.2500000   0.0589256   0.0000000), wk =   0.0416667
        k(   22) = (   0.2500000   0.1178511   0.0000000), wk =   0.0416667
        k(   23) = (   0.2500000   0.1767767   0.0000000), wk =   0.0416667
        k(   24) = (   0.2500000   0.2357023   0.0000000), wk =   0.0416667
        k(   25) = (   0.2500000   0.2946278   0.0000000), wk =   0.0416667
        k(   26) = (   0.2500000  -0.3535534   0.0000000), wk =   0.0416667
        k(   27) = (   0.2500000  -0.2946278   0.0000000), wk =   0.0416667
        k(   28) = (   0.2500000  -0.2357023   0.0000000), wk =   0.0416667
        k(   29) = (   0.2500000  -0.1767767   0.0000000), wk =   0.0416667
        k(   30) = (   0.2500000  -0.1178511   0.0000000), wk =   0.0416667
        k(   31) = (   0.2500000  -0.0589256   0.0000000), wk =   0.0416667
        k(   32) = (   0.3750000   0.0000000   0.0000000), wk =   0.0416667
        k(   33) = (   0.3750000   0.0589256   0.0000000), wk =   0.0416667
        k(   34) = (   0.3750000   0.1178511   0.0000000), wk =   0.0416667
        k(   35) = (   0.3750000   0.1767767   0.0000000), wk =   0.0416667
        k(   36) = (   0.3750000   0.2357023   0.0000000), wk =   0.0416667
        k(   37) = (   0.3750000   0.2946278   0.0000000), wk =   0.0416667
        k(   38) = (   0.3750000  -0.3535534   0.0000000), wk =   0.0416667
        k(   39) = (   0.3750000  -0.2946278   0.0000000), wk =   0.0416667
        k(   40) = (   0.3750000  -0.2357023   0.0000000), wk =   0.0416667
        k(   41) = (   0.3750000  -0.1767767   0.0000000), wk =   0.0416667
        k(   42) = (   0.3750000  -0.1178511   0.0000000), wk =   0.0416667
        k(   43) = (   0.3750000  -0.0589256   0.0000000), wk =   0.0416667
        k(   44) = (  -0.5000000   0.0000000   0.0000000), wk =   0.0208333
        k(   45) = (  -0.5000000   0.0589256   0.0000000), wk =   0.0416667
        k(   46) = (  -0.5000000   0.1178511   0.0000000), wk =   0.0416667
        k(   47) = (  -0.5000000   0.1767767   0.0000000), wk =   0.0416667
        k(   48) = (  -0.5000000   0.2357023   0.0000000), wk =   0.0416667
        k(   49) = (  -0.5000000   0.2946278   0.0000000), wk =   0.0416667
        k(   50) = (  -0.5000000  -0.3535534   0.0000000), wk =   0.0208333

     Initial potential from superposition of free atoms

     starting charge     307.9969, renormalised to     308.0000
     Starting wfcs are  252 randomized atomic wfcs
     Checking if some PAW data can be deallocated...

     Self-consistent Calculation

     iteration #  1     ecut=    50.00 Ry     beta= 0.10
     Davidson diagonalization with overlap
     ethr =  1.00E-02,  avg # of iterations =  4.0

     total energy              =  -21693.42465197 Ry
     estimated scf accuracy    <      11.91743345 Ry

[...]

     iteration #  8     ecut=    50.00 Ry     beta= 0.10
     Davidson diagonalization with overlap
     c_bands:  1 eigenvalues not converged
     c_bands:  1 eigenvalues not converged
     c_bands:  1 eigenvalues not converged
     c_bands:  1 eigenvalues not converged
     c_bands:  1 eigenvalues not converged
     c_bands:  1 eigenvalues not converged
     c_bands:  1 eigenvalues not converged
     c_bands:  1 eigenvalues not converged
     c_bands:  2 eigenvalues not converged
     c_bands:  1 eigenvalues not converged
     c_bands:  1 eigenvalues not converged
     c_bands:  2 eigenvalues not converged
     ethr =  1.94E-05,  avg # of iterations = 12.9

[...]

     End of self-consistent calculation

          k = 0.0000 0.0000 0.0000 ( 17807 PWs)   bands (ev):

     0.9540   1.1154   1.1154   2.5036   2.8213   2.9373   3.0578   3.0578
     4.8069   4.8401   5.5594   5.5594   6.2199   7.4108   7.4109   7.7415
     8.0289   8.2974   9.2021   9.3719   9.4727   9.5855   9.6731   9.6733
     9.9945  10.1383  10.1408  10.3409  10.5538  10.5629  10.5768  10.7114
    10.7507  10.8071  10.9209  10.9845  11.0965  11.1334  11.2268  11.2306
    11.2344  11.2355  11.2668  11.2826  11.3212  11.3591  11.4588  11.5116
    11.5342  11.6259  11.6518  11.6596  11.7362  11.8190  11.8967  12.0070
    12.0150  12.0597  12.1788  12.2076  12.2181  12.3184  12.4646  12.4941
    12.5661  12.6143  12.6809  12.7079  12.7587  12.8169  12.8593  12.8776
    12.9170  12.9180  12.9994  13.0431  13.0934  13.1434  13.2279  13.2638
    13.3058  13.3144  13.3277  13.3763  13.4113  13.4268  13.5137  13.6716
    13.6909  13.7232  13.7398  13.9093  13.9281  14.0884  14.1383  14.1846
[...]
     atom    8 type  1   force =    -0.00082602    0.00000121    0.00637042
     atom    9 type  1   force =    -0.00008581    0.00000222    0.00123195
     atom   10 type  1   force =    -0.00008706   -0.00000338    0.00122890
     atom   11 type  1   force =     0.00043970   -0.00000163   -0.00151909
     atom   12 type  1   force =     0.00043872    0.00000198   -0.00151983
     atom   13 type  1   force =    -0.01392850   -0.00000053    0.00411496
     atom   14 type  1   force =    -0.01392776    0.00000125    0.00411450
     atom   15 type  1   force =     0.26901962    0.00000175   -0.34265155
     atom   16 type  1   force =     0.26902150    0.00000128   -0.34265751
     atom   17 type  1   force =    -0.26897530   -0.00000519    0.34224974
     atom   18 type  1   force =    -0.26897922    0.00000470    0.34224783
     atom   19 type  1   force =     0.01430891   -0.00000156   -0.00635771
     atom   20 type  1   force =     0.01430719   -0.00000084   -0.00635621
     atom   21 type  1   force =     0.00036495   -0.00000479   -0.00460509
     atom   22 type  1   force =     0.00036798    0.00000528   -0.00460026
     atom   23 type  1   force =    -0.01280469   -0.00000096   -0.04530823
     atom   24 type  1   force =    -0.01280580   -0.00000021   -0.04530467
     atom   25 type  1   force =     1.48446213    0.00000351   -2.11423684
     atom   26 type  1   force =     1.48445730   -0.00000401   -2.11423027
     atom   27 type  1   force =    -1.43662318   -0.00000394   -1.93247465
     atom   28 type  1   force =    -1.43662877    0.00000279   -1.93247683

     Total force =     5.770308     Total SCF correction =     0.000748

     BFGS Geometry Optimization
     Energy error            =      0.0E+00 Ry
     Gradient error          =      2.1E+00 Ry/Bohr

     number of scf cycles    =   1
     number of bfgs steps    =   0

     energy             new  =  -21695.4408779548 Ry

     new trust radius        =       0.5000000000 bohr
     new conv_thr            =       0.0000010000 Ry

ATOMIC_POSITIONS (angstrom)
Au            2.0400000000        1.4424978336        0.2418316555    0   0   1
Au            2.0400000000        4.3274935009        0.2418311834    0   0   1
Au            0.0000000000        0.0000000000        1.7070864391    0   0   1
Au            0.0000000000        2.8849956672        1.7070853600    0   0   1
Au            2.0400000000        1.4424978336        2.8907979150    0   0   1
Au            2.0400000000        4.3274935009        2.8907978930    0   0   1
Au            0.0000000000        0.0000000000        4.3282904720    0   0   1
Au            0.0000000000        2.8849956672        4.3282906958    0   0   1
Au            2.0400000000        1.4424978336        5.7701455015    0   0   1
Au            2.0400000000        4.3274935009        5.7701451187    0   0   1
Au            0.0000000000        0.0000000000        7.2122990692    0   0   1
Au            0.0000000000        2.8849956672        7.2122989770    0   0   1
Au            2.0400000000        1.4424978336        8.6555019488    0   0   1
Au            2.0400000000        4.3274935009        8.6555018907    0   0   1
Au            0.0000000000        0.0000000000       10.0546053838    0   0   1
Au            0.0000000000        2.8849956672       10.0546046377    0   0   1
Au            3.0600000000        1.4424978336       11.5828118383    0   0   1
Au            3.0600000000        4.3274935009       11.5828115992    0   0   1
Au            1.0200000000        0.0000000000       12.9816848980    0   0   1
Au            1.0200000000        2.8849956672       12.9816850855    0   0   1
Au            3.0600000000        1.4424978336       14.4244020553    0   0   1
Au            3.0600000000        4.3274935009       14.4244026596    0   0   1
Au            1.0200000000        0.0000000000       15.8618062930    0   0   1
Au            1.0200000000        2.8849956672       15.8618067380    0   0   1
Au            3.0600000000        1.4424978336       17.0453981780    0   0   1
Au            3.0600000000        4.3274935009       17.0453990001    0   0   1
Au            1.0200000000        0.0000000000       18.5106417527    0   0   1
Au            1.0200000000        2.8849956672       18.5106414799    0   0   1

     Writing config-only to output data dir ./pwscf.save/
     NEW-OLD atomic charge density approx. for the potential

[...]

     Total force =     1.608802     Total SCF correction =     0.001885
     Energy error            =      2.4E+00 Ry
     Gradient error          =      7.5E-01 Ry/Bohr

[...]

     energy             old  =  -21700.4643755392 Ry
     energy             new  =  -21702.9088804471 Ry

     CASE: energy            _new < energy            _old

[...]

     Total force =     1.088082     Total SCF correction =     0.002438

     BFGS Geometry Optimization
     Energy error            =      0.0E+00 Ry
     Gradient error          =      4.1E-01 Ry/Bohr

[...]

     energy             new  =  -21703.8806988624 Ry

[...]

     iteration #  2     ecut=    50.00 Ry     beta= 0.10
     Davidson diagonalization with overlap
     c_bands:  1 eigenvalues not converged
     c_bands:  2 eigenvalues not converged
     c_bands:  2 eigenvalues not converged
     ethr =  2.75E-06,  avg # of iterations =  4.7

[...]

     Threshold (ethr) on eigenvalues was too large:
     Diagonalizing with lowered threshold

     Davidson diagonalization with overlap
     ethr =  4.87E-08,  avg # of iterations =  4.5

[...]

     Total force =     0.004412     Total SCF correction =     0.000383
     Energy error            =      4.7E-05 Ry
     Gradient error          =      1.8E-03 Ry/Bohr

     number of scf cycles    =  17
     number of bfgs steps    =  12

     energy             old  =  -21704.4106542455 Ry
     energy             new  =  -21704.4107011529 Ry

     CASE: energy            _new < energy            _old

     new trust radius        =       0.0048968379 bohr
     new conv_thr            =       0.0000000100 Ry

ATOMIC_POSITIONS (angstrom)
Au            2.0400000000        1.4424978336        0.9087528071    0   0   1
Au            2.0400000000        4.3274935009        0.9087525708    0   0   1
Au            0.0000000000        0.0000000000        1.9229034907    0   0   1
Au            0.0000000000        2.8849956672        1.9229039229    0   0   1
Au            2.0400000000        1.4424978336        3.4675812380    0   0   1
Au            2.0400000000        4.3274935009        3.4675807786    0   0   1
Au            0.0000000000        0.0000000000        4.6258214197    0   0   1
Au            0.0000000000        2.8849956672        4.6258221994    0   0   1
Au            2.0400000000        1.4424978336        6.0905017105    0   0   1
Au            2.0400000000        4.3274935009        6.0905012335    0   0   1
Au            0.0000000000        0.0000000000        7.2476335896    0   0   1
Au            0.0000000000        2.8849956672        7.2476341575    0   0   1
Au            2.0400000000        1.4424978336        8.7939816420    0   0   1
Au            2.0400000000        4.3274935009        8.7939811229    0   0   1
Au            0.0000000000        0.0000000000        9.8063165371    0   0   1
Au            0.0000000000        2.8849956672        9.8063169767    0   0   1
Au            3.0600000000        1.4424978336       11.6276857198    0   0   1
Au            3.0600000000        4.3274935009       11.6276855501    0   0   1
Au            1.0200000000        0.0000000000       12.5963661055    0   0   1
Au            1.0200000000        2.8849956672       12.5963662955    0   0   1
Au            3.0600000000        1.4424978336       14.1995034774    0   0   1
Au            3.0600000000        4.3274935009       14.1995032473    0   0   1
Au            1.0200000000        0.0000000000       15.2690685461    0   0   1
Au            1.0200000000        2.8849956672       15.2690681669    0   0   1
Au            3.0600000000        1.4424978336       16.8716590586    0   0   1
Au            3.0600000000        4.3274935009       16.8716584766    0   0   1
Au            1.0200000000        0.0000000000       17.8395279193    0   0   1
Au            1.0200000000        2.8849956672       17.8395277587    0   0   1

     Writing config-only to output data dir ./pwscf.save/
     NEW-OLD atomic charge density approx. for the potential

     Self-consistent Calculation

[...]

     Threshold (ethr) on eigenvalues was too large:
     Diagonalizing with lowered threshold

     Davidson diagonalization with overlap
     ethr =  2.23E-08,  avg # of iterations =  3.2

[...]

     total energy              =  -21704.41071807 Ry
     estimated scf accuracy    <       0.00000002 Ry

     iteration # 10     ecut=    50.00 Ry     beta= 0.10
     Davidson diagonalization with overlap
     ethr =  5.44E-12,  avg # of iterations =  4.5

     End of self-consistent calculation

[...]

          k = 0.3750-0.0589 0.0000 ( 17796 PWs)   bands (ev):

[...]

          k =-0.5000-0.3536 0.0000 ( 17712 PWs)   bands (ev):

     9.5109   9.5109   9.5115   9.5115   9.8555   9.8555   9.8563   9.8563
    10.2367  10.2367  10.2374  10.2374  10.4465  10.4465  10.4474  10.4474
    10.5258  10.5258  10.5267  10.5267  10.7728  10.7728  10.7733  10.7733
    11.1653  11.1653  11.1662  11.1662  11.2567  11.2567  11.2571  11.2571
    11.4216  11.4216  11.4218  11.4218  11.5045  11.5045  11.5057  11.5057
    11.5615  11.5615  11.5627  11.5627  11.7514  11.7514  11.7522  11.7522
    11.8557  11.8557  11.8561  11.8561  11.9506  11.9506  11.9510  11.9510
    11.9989  11.9989  11.9993  11.9993  12.1375  12.1375  12.1377  12.1377
    12.2406  12.2406  12.2409  12.2409  12.3779  12.3779  12.3784  12.3784
    12.5683  12.5683  12.5688  12.5688  12.6724  12.6724  12.6734  12.6734
    12.7615  12.7615  12.7618  12.7618  13.0790  13.0790  13.0794  13.0794
    13.3159  13.3159  13.3159  13.3159  13.4647  13.4647  13.4648  13.4648
    13.5447  13.5447  13.5451  13.5451  13.6440  13.6440  13.6442  13.6442
    13.6888  13.6888  13.6892  13.6892  13.8656  13.8656  13.8659  13.8659
    14.2224  14.2224  14.2227  14.2227  14.3476  14.3476  14.3478  14.3478
    14.5056  14.5056  14.5060  14.5060  14.7231  14.7231  14.7235  14.7235
    15.1255  15.1255  15.1261  15.1261  15.3396  15.3396  15.3401  15.3401
    15.5735  15.5735  15.5743  15.5743  15.6363  15.6363  15.6369  15.6369
    16.2537  16.2537  16.2540  16.2540  16.5172  16.5172  16.5174  16.5174
    17.4055  17.4055  17.4057  17.4057  17.6127  17.6127  17.6127  17.6127
    19.3973  19.3973  19.3976  19.3976  19.5706  19.5706  19.5712  19.5712
    22.4614  22.4614  22.4618  22.4618  23.7684  23.7684  23.7688  23.7688
    25.5615  25.5615  25.5616  25.5616  26.0133  26.0134  26.0136  26.0136
    26.2428

     the Fermi energy is    18.2816 ev

!    total energy              =  -21704.41071803 Ry

     total all-electron energy =  -1064672.101267 Ry
     estimated scf accuracy    <          5.8E-09 Ry
     smearing contrib. (-TS)   =      -3.20768338 Ry
     internal energy E=F+TS    =  -21701.20303465 Ry

     The total energy is F=E-TS. E is the sum of the following terms:
     one-electron contribution =     430.09912322 Ry
     hartree contribution      =     208.69336057 Ry
     xc contribution           =    -901.23278472 Ry
     ewald contribution        =   -2047.35192779 Ry
     one-center paw contrib.   =  -19391.41080593 Ry

     convergence has been achieved in  10 iterations

     Forces acting on atoms (cartesian axes, Ry/au):

     atom    1 type  1   force =     0.07691669    0.00000021   -0.00048682
     atom    2 type  1   force =     0.07691684   -0.00000019   -0.00048684
     atom    3 type  1   force =    -0.01198646   -0.00000001   -0.00013719
     atom    4 type  1   force =    -0.01198650    0.00000004   -0.00013725
     atom    5 type  1   force =     0.00136320   -0.00000014    0.00018617
     atom    6 type  1   force =     0.00136312   -0.00000007    0.00018616
     atom    7 type  1   force =     0.00037771   -0.00000004   -0.00010890
     atom    8 type  1   force =     0.00037771   -0.00000003   -0.00010913
     atom    9 type  1   force =     0.00037597    0.00000006   -0.00022613
     atom   10 type  1   force =     0.00037602   -0.00000005   -0.00022613
     atom   11 type  1   force =     0.00136645   -0.00000002    0.00025428
     atom   12 type  1   force =     0.00136649    0.00000008    0.00025426
     atom   13 type  1   force =    -0.01204402    0.00000006   -0.00029909
     atom   14 type  1   force =    -0.01204399    0.00000002   -0.00029915
     atom   15 type  1   force =     0.07706703    0.00000006    0.00049650
     atom   16 type  1   force =     0.07706716   -0.00000003    0.00049631
     atom   17 type  1   force =    -0.07795791    0.00000002    0.00022270
     atom   18 type  1   force =    -0.07795789    0.00000011    0.00022278
     atom   19 type  1   force =     0.01294763   -0.00000002    0.00025300
     atom   20 type  1   force =     0.01294764    0.00000000    0.00025299
     atom   21 type  1   force =    -0.00175506    0.00000006   -0.00023980
     atom   22 type  1   force =    -0.00175503    0.00000004   -0.00023989
     atom   23 type  1   force =    -0.00176036   -0.00000012   -0.00048103
     atom   24 type  1   force =    -0.00176024   -0.00000017   -0.00048095
     atom   25 type  1   force =     0.01296525    0.00000009   -0.00014556
     atom   26 type  1   force =     0.01296522    0.00000008   -0.00014536
     atom   27 type  1   force =    -0.07787634   -0.00000004    0.00071200
     atom   28 type  1   force =    -0.07787634    0.00000000    0.00071205

     Total force =     0.001836     Total SCF correction =     0.000411
     SCF correction compared to forces is large: reduce conv_thr to get better values
     Energy error            =      1.7E-05 Ry
     Gradient error          =      7.1E-04 Ry/Bohr

     bfgs converged in  18 scf cycles and  13 bfgs steps
     (criteria: energy <  1.0E-04 Ry, force <  1.0E-03 Ry/Bohr)

     End of BFGS Geometry Optimization

     Final energy             =  -21704.4107180276 Ry

     File ./pwscf.bfgs deleted, as requested
Begin final coordinates

ATOMIC_POSITIONS (angstrom)
Au            2.0400000000        1.4424978336        0.9087528071    0   0   1
Au            2.0400000000        4.3274935009        0.9087525708    0   0   1
Au            0.0000000000        0.0000000000        1.9229034907    0   0   1
Au            0.0000000000        2.8849956672        1.9229039229    0   0   1
Au            2.0400000000        1.4424978336        3.4675812380    0   0   1
Au            2.0400000000        4.3274935009        3.4675807786    0   0   1
Au            0.0000000000        0.0000000000        4.6258214197    0   0   1
Au            0.0000000000        2.8849956672        4.6258221994    0   0   1
Au            2.0400000000        1.4424978336        6.0905017105    0   0   1
Au            2.0400000000        4.3274935009        6.0905012335    0   0   1
Au            0.0000000000        0.0000000000        7.2476335896    0   0   1
Au            0.0000000000        2.8849956672        7.2476341575    0   0   1
Au            2.0400000000        1.4424978336        8.7939816420    0   0   1
Au            2.0400000000        4.3274935009        8.7939811229    0   0   1
Au            0.0000000000        0.0000000000        9.8063165371    0   0   1
Au            0.0000000000        2.8849956672        9.8063169767    0   0   1
Au            3.0600000000        1.4424978336       11.6276857198    0   0   1
Au            3.0600000000        4.3274935009       11.6276855501    0   0   1
Au            1.0200000000        0.0000000000       12.5963661055    0   0   1
Au            1.0200000000        2.8849956672       12.5963662955    0   0   1
Au            3.0600000000        1.4424978336       14.1995034774    0   0   1
Au            3.0600000000        4.3274935009       14.1995032473    0   0   1
Au            1.0200000000        0.0000000000       15.2690685461    0   0   1
Au            1.0200000000        2.8849956672       15.2690681669    0   0   1
Au            3.0600000000        1.4424978336       16.8716590586    0   0   1
Au            3.0600000000        4.3274935009       16.8716584766    0   0   1
Au            1.0200000000        0.0000000000       17.8395279193    0   0   1
Au            1.0200000000        2.8849956672       17.8395277587    0   0   1
End final coordinates

     Writing all to output data dir ./pwscf.save/

     General routines

     Parallel routines

   This run was terminated on:  16:15:45  17Mar2024

   JOB DONE.