     Program PWSCF v.7.0 starts on 19Mar2024 at 13:21:48

     R & G space division:  proc/nbgrp/npool/nimage =      10

     Reading input from GSF110R_0.45.in
Warning: card &CELL ignored
Warning: card / ignored

     Current dimensions of program PWSCF are:
     Max number of different atomic species (ntypx) = 10
     Max number of k-points (npk) =  40000
     Max angular momentum in pseudopotentials (lmaxx) =  4
     file Au.pbe-n-kjpaw_psl.1.0.0.UPF: wavefunction(s)  6S 5D renormalized
     Found identity + (  0.0000 -0.5000  0.0000) symmetry
     This is a supercell, fractional translations are disabled

     Using Slab Decomposition

     bravais-lattice index     =            0
     lattice parameter (alat)  =       7.7101  a.u.
     unit-cell volume          =    2979.1368 (a.u.)^3
     number of atoms/cell      =           28
     number of atomic types    =            1
     number of electrons       =       308.00
     number of Kohn-Sham states=          185
     kinetic-energy cutoff     =      50.0000  Ry
     charge density cutoff     =     275.0000  Ry
     scf convergence threshold =      1.0E-06
     mixing beta               =       0.1000
     number of iterations used =            8  plain     mixing
     energy convergence thresh.=      1.0E-04
     force convergence thresh. =      1.0E-03
     Exchange-correlation= SLA  PW   PBX  PBC
                           (   1   4   3   4   0   0   0)
     nstep                     =           50

     celldm(1)=   7.710083  celldm(2)=   0.000000  celldm(3)=   0.000000
     celldm(4)=   0.000000  celldm(5)=   0.000000  celldm(6)=   0.000000

     crystal axes: (cart. coord. in units of alat)
               a(1) = (   1.000000   0.000000   0.000000 )
               a(2) = (   0.000000   1.414214   0.000000 )
               a(3) = (   0.000000   0.000000   4.596194 )

     reciprocal axes: (cart. coord. in units 2 pi/alat)
               b(1) = (  1.000000  0.000000  0.000000 )
               b(2) = (  0.000000  0.707107  0.000000 )
               b(3) = (  0.000000  0.000000  0.217571 )

     PseudoPot. # 1 for Au read from file:
     ./Au.pbe-n-kjpaw_psl.1.0.0.UPF
     MD5 check sum: 4db85c736373c707a97ce4c36c2a9d23
     Pseudo is Projector augmented-wave + core cor, Zval = 11.0
     Generated using &quot;atomic&quot; code by A. Dal Corso  v.6.3
     Shape of augmentation charge: PSQ
     Using radial grid of 1279 points,  6 beta functions with:
                l(1) =   0
                l(2) =   0
                l(3) =   1
                l(4) =   1
                l(5) =   2
                l(6) =   2
     Q(r) pseudized with 0 coefficients

     atomic species   valence    mass     pseudopotential
        Au            11.00   196.96657     Au( 1.00)

     No symmetry found

   Cartesian axes

     site n.     atom                  positions (alat units)
         1           Au  tau(   1) = (   0.5000000   0.3535534   0.0000000  )
         2           Au  tau(   2) = (   0.5000000   1.0606602   0.0000000  )
         3           Au  tau(   3) = (   0.0000000   0.0000000   0.3535534  )
         4           Au  tau(   4) = (   0.0000000   0.7071068   0.3535534  )
         5           Au  tau(   5) = (   0.5000000   0.3535534   0.7071068  )
         6           Au  tau(   6) = (   0.5000000   1.0606602   0.7071068  )
         7           Au  tau(   7) = (   0.0000000   0.0000000   1.0606602  )
         8           Au  tau(   8) = (   0.0000000   0.7071068   1.0606602  )
         9           Au  tau(   9) = (   0.5000000   0.3535534   1.4142136  )
        10           Au  tau(  10) = (   0.5000000   1.0606602   1.4142136  )
        11           Au  tau(  11) = (   0.0000000   0.0000000   1.7677670  )
        12           Au  tau(  12) = (   0.0000000   0.7071068   1.7677670  )
        13           Au  tau(  13) = (   0.5000000   0.3535534   2.1213203  )
        14           Au  tau(  14) = (   0.5000000   1.0606602   2.1213203  )
        15           Au  tau(  15) = (   0.0000000   0.0000000   2.4748737  )
        16           Au  tau(  16) = (   0.0000000   0.7071068   2.4748737  )
        17           Au  tau(  17) = (   0.9500000   0.3535534   2.8284271  )
        18           Au  tau(  18) = (   0.9500000   1.0606602   2.8284271  )
        19           Au  tau(  19) = (   0.4500000   0.0000000   3.1819805  )
        20           Au  tau(  20) = (   0.4500000   0.7071068   3.1819805  )
        21           Au  tau(  21) = (   0.9500000   0.3535534   3.5355339  )
        22           Au  tau(  22) = (   0.9500000   1.0606602   3.5355339  )
        23           Au  tau(  23) = (   0.4500000   0.0000000   3.8890873  )
        24           Au  tau(  24) = (   0.4500000   0.7071068   3.8890873  )
        25           Au  tau(  25) = (   0.9500000   0.3535534   4.2426407  )
        26           Au  tau(  26) = (   0.9500000   1.0606602   4.2426407  )
        27           Au  tau(  27) = (   0.4500000   0.0000000   4.5961941  )
        28           Au  tau(  28) = (   0.4500000   0.7071068   4.5961941  )

     number of k points=    50  Gaussian smearing, width (Ry)=  0.2000
                       cart. coord. in units 2pi/alat
        k(    1) = (   0.0000000   0.0000000   0.0000000), wk =   0.0208333
        k(    2) = (   0.0000000   0.0589256   0.0000000), wk =   0.0416667
        k(    3) = (   0.0000000   0.1178511   0.0000000), wk =   0.0416667
        k(    4) = (   0.0000000   0.1767767   0.0000000), wk =   0.0416667
        k(    5) = (   0.0000000   0.2357023   0.0000000), wk =   0.0416667
        k(    6) = (   0.0000000   0.2946278   0.0000000), wk =   0.0416667
        k(    7) = (   0.0000000  -0.3535534   0.0000000), wk =   0.0208333
        k(    8) = (   0.1250000   0.0000000   0.0000000), wk =   0.0416667
        k(    9) = (   0.1250000   0.0589256   0.0000000), wk =   0.0416667
        k(   10) = (   0.1250000   0.1178511   0.0000000), wk =   0.0416667
        k(   11) = (   0.1250000   0.1767767   0.0000000), wk =   0.0416667
        k(   12) = (   0.1250000   0.2357023   0.0000000), wk =   0.0416667
        k(   13) = (   0.1250000   0.2946278   0.0000000), wk =   0.0416667
        k(   14) = (   0.1250000  -0.3535534   0.0000000), wk =   0.0416667
        k(   15) = (   0.1250000  -0.2946278   0.0000000), wk =   0.0416667
        k(   16) = (   0.1250000  -0.2357023   0.0000000), wk =   0.0416667
        k(   17) = (   0.1250000  -0.1767767   0.0000000), wk =   0.0416667
        k(   18) = (   0.1250000  -0.1178511   0.0000000), wk =   0.0416667
        k(   19) = (   0.1250000  -0.0589256   0.0000000), wk =   0.0416667
        k(   20) = (   0.2500000   0.0000000   0.0000000), wk =   0.0416667
        k(   21) = (   0.2500000   0.0589256   0.0000000), wk =   0.0416667
        k(   22) = (   0.2500000   0.1178511   0.0000000), wk =   0.0416667
        k(   23) = (   0.2500000   0.1767767   0.0000000), wk =   0.0416667
        k(   24) = (   0.2500000   0.2357023   0.0000000), wk =   0.0416667
        k(   25) = (   0.2500000   0.2946278   0.0000000), wk =   0.0416667
        k(   26) = (   0.2500000  -0.3535534   0.0000000), wk =   0.0416667
        k(   27) = (   0.2500000  -0.2946278   0.0000000), wk =   0.0416667
        k(   28) = (   0.2500000  -0.2357023   0.0000000), wk =   0.0416667
        k(   29) = (   0.2500000  -0.1767767   0.0000000), wk =   0.0416667
        k(   30) = (   0.2500000  -0.1178511   0.0000000), wk =   0.0416667
        k(   31) = (   0.2500000  -0.0589256   0.0000000), wk =   0.0416667
        k(   32) = (   0.3750000   0.0000000   0.0000000), wk =   0.0416667
        k(   33) = (   0.3750000   0.0589256   0.0000000), wk =   0.0416667
        k(   34) = (   0.3750000   0.1178511   0.0000000), wk =   0.0416667
        k(   35) = (   0.3750000   0.1767767   0.0000000), wk =   0.0416667
        k(   36) = (   0.3750000   0.2357023   0.0000000), wk =   0.0416667
        k(   37) = (   0.3750000   0.2946278   0.0000000), wk =   0.0416667
        k(   38) = (   0.3750000  -0.3535534   0.0000000), wk =   0.0416667
        k(   39) = (   0.3750000  -0.2946278   0.0000000), wk =   0.0416667
        k(   40) = (   0.3750000  -0.2357023   0.0000000), wk =   0.0416667
        k(   41) = (   0.3750000  -0.1767767   0.0000000), wk =   0.0416667
        k(   42) = (   0.3750000  -0.1178511   0.0000000), wk =   0.0416667
        k(   43) = (   0.3750000  -0.0589256   0.0000000), wk =   0.0416667
        k(   44) = (  -0.5000000   0.0000000   0.0000000), wk =   0.0208333
        k(   45) = (  -0.5000000   0.0589256   0.0000000), wk =   0.0416667
        k(   46) = (  -0.5000000   0.1178511   0.0000000), wk =   0.0416667
        k(   47) = (  -0.5000000   0.1767767   0.0000000), wk =   0.0416667
        k(   48) = (  -0.5000000   0.2357023   0.0000000), wk =   0.0416667
        k(   49) = (  -0.5000000   0.2946278   0.0000000), wk =   0.0416667
        k(   50) = (  -0.5000000  -0.3535534   0.0000000), wk =   0.0208333

     Initial potential from superposition of free atoms

     starting charge     307.9969, renormalised to     308.0000
     Starting wfcs are  252 randomized atomic wfcs
     Checking if some PAW data can be deallocated...

     Self-consistent Calculation

     iteration #  1     ecut=    50.00 Ry     beta= 0.10
     Davidson diagonalization with overlap
     ethr =  1.00E-02,  avg # of iterations =  4.8

     total energy              =  -21686.11629397 Ry
     estimated scf accuracy    <      16.64022443 Ry

[...]

     iteration #  7     ecut=    50.00 Ry     beta= 0.10
     Davidson diagonalization with overlap
     c_bands:  1 eigenvalues not converged
     ethr =  1.24E-04,  avg # of iterations =  8.0

     negative rho (up, down):  4.889E-03 0.000E+00

[...]

     End of self-consistent calculation

          k = 0.0000 0.0000 0.0000 ( 17807 PWs)   bands (ev):

    -9.5528  -8.7691  -8.6487  -3.3853  -3.3852   0.2249   0.2250   1.1601
     1.2349   4.4054   4.7909   4.7910   5.7257   5.7258   7.4795   7.6249
     7.6251   7.7915   8.1312   8.6426   8.7658   9.1094   9.2676   9.5612
     9.6099   9.6112   9.8613   9.8615  10.2371  10.4039  10.7868  10.8372
    10.8480  10.9329  11.0170  11.0780  11.0840  11.2254  11.2308  11.2770
    11.3557  11.3899  11.4214  11.5013  11.5202  11.5780  11.6180  11.6548
    11.6594  11.7660  11.7682  11.7705  11.8316  11.8795  11.9058  11.9614
    12.0359  12.1557  12.1969  12.2075  12.3267  12.3349  12.4705  12.4732
    12.5516  12.6040  12.6169  12.7106  12.8503  12.8692  12.8874  12.9097
    12.9961  13.0256  13.0660  13.0998  13.1285  13.1360  13.1520  13.2176
    13.2495  13.2953  13.3104  13.4357  13.4501  13.5441  13.5903  13.6594
    13.7278  13.7334  13.8270  13.9054  13.9270  14.0966  14.1643  14.2186
    14.2202  14.2899  14.3012  14.3311  14.4333  14.4481  14.5033  14.6141
    14.6280  14.6361  14.6419  14.6855  14.7045  14.7456  14.7608  14.7959
    14.9266  14.9781  15.0814  15.0825  15.1399  15.1404  15.2746  15.2959
    15.3229  15.3254  15.4123  15.4399  15.5749  15.6071  15.6107  15.6199
    15.6324  15.6471  15.6701  15.7817  15.7829  15.8597  15.8829  15.9681
[...]
     atom    6 type  1   force =     0.00492851   -0.00000188    0.05957642
     atom    7 type  1   force =     0.00010179    0.00000031    0.00785687
     atom    8 type  1   force =     0.00009920   -0.00000075    0.00785875
     atom    9 type  1   force =     0.00008593    0.00000254    0.00091419
     atom   10 type  1   force =     0.00008658   -0.00000309    0.00091396
     atom   11 type  1   force =     0.00012417    0.00000101   -0.00332803
     atom   12 type  1   force =     0.00011962   -0.00000292   -0.00332818
     atom   13 type  1   force =    -0.00444044   -0.00000185   -0.00090404
     atom   14 type  1   force =    -0.00444170    0.00000225   -0.00089784
     atom   15 type  1   force =     0.16159900    0.00000058   -1.09721693
     atom   16 type  1   force =     0.16160194   -0.00000120   -1.09721862
     atom   17 type  1   force =    -0.16160146    0.00000381    1.09666686
     atom   18 type  1   force =    -0.16160451   -0.00000310    1.09666561
     atom   19 type  1   force =     0.00445530   -0.00000224   -0.00205923
     atom   20 type  1   force =     0.00445421    0.00000278   -0.00205085
     atom   21 type  1   force =    -0.00020492   -0.00000199   -0.00439031
     atom   22 type  1   force =    -0.00020452    0.00000160   -0.00438599
     atom   23 type  1   force =    -0.00501251   -0.00000077   -0.05762911
     atom   24 type  1   force =    -0.00501260    0.00000049   -0.05762739
     atom   25 type  1   force =     0.14894107    0.00000052   -0.28710925
     atom   26 type  1   force =     0.14893514    0.00000180   -0.28710262
     atom   27 type  1   force =    -1.76630777   -0.00001336   -0.09223267
     atom   28 type  1   force =    -1.76631734    0.00001469   -0.09223584

     Total force =     2.278443     Total SCF correction =     0.003074

     BFGS Geometry Optimization
     Energy error            =      0.0E+00 Ry
     Gradient error          =      1.1E+00 Ry/Bohr

     number of scf cycles    =   1
     number of bfgs steps    =   0

     energy             new  =  -21688.2820753473 Ry

     new trust radius        =       0.5000000000 bohr
     new conv_thr            =       0.0000010000 Ry

ATOMIC_POSITIONS (angstrom)
Au            2.0400000000        1.4424978336        0.0222694474    0   0   1
Au            2.0400000000        4.3274935009        0.0222696004    0   0   1
Au            0.0000000000        0.0000000000        1.5118259158    0   0   1
Au            0.0000000000        2.8849956672        1.5118255633    0   0   1
Au            2.0400000000        1.4424978336        2.8993621483    0   0   1
Au            2.0400000000        4.3274935009        2.8993622124    0   0   1
Au            0.0000000000        0.0000000000        4.3293881451    0   0   1
Au            0.0000000000        2.8849956672        4.3293885970    0   0   1
Au            2.0400000000        1.4424978336        5.7702117873    0   0   1
Au            2.0400000000        4.3274935009        5.7702117314    0   0   1
Au            0.0000000000        0.0000000000        7.2116866302    0   0   1
Au            0.0000000000        2.8849956672        7.2116865954    0   0   1
Au            2.0400000000        1.4424978336        8.6547689971    0   0   1
Au            2.0400000000        4.3274935009        8.6547704917    0   0   1
Au            0.0000000000        0.0000000000        9.8328966387    0   0   1
Au            0.0000000000        2.8849956672        9.8328962298    0   0   1
Au            3.8760000000        1.4424978336       11.8044382186    0   0   1
Au            3.8760000000        4.3274935009       11.8044379184    0   0   1
Au            1.8360000000        0.0000000000       12.9819839288    0   0   1
Au            1.8360000000        2.8849956672       12.9819859503    0   0   1
Au            3.8760000000        1.4424978336       14.4239196368    0   0   1
Au            3.8760000000        4.3274935009       14.4239206785    0   0   1
Au            1.8360000000        0.0000000000       15.8535792083    0   0   1
Au            1.8360000000        2.8849956672       15.8535796229    0   0   1
Au            3.8760000000        1.4424978336       17.2407390890    0   0   1
Au            3.8760000000        4.3274935009       17.2407406892    0   0   1
Au            1.8360000000        0.0000000000       18.7302304050    0   0   1
Au            1.8360000000        2.8849956672       18.7302296414    0   0   1

     Writing config-only to output data dir ./pwscf.save/
     NEW-OLD atomic charge density approx. for the potential

[...]

     Total force =     1.086414     Total SCF correction =     0.002844
     Energy error            =      1.2E+00 Ry
     Gradient error          =      4.8E-01 Ry/Bohr

[...]

     energy             old  =  -21688.2820753473 Ry
     energy             new  =  -21689.4947492395 Ry

     CASE: energy            _new < energy            _old

[...]

     negative rho (up, down):  1.070E-03 0.000E+00

[...]

     WARNING: bfgs curvature condition failed, Theta= 0.150
     new trust radius        =       0.6542807229 bohr
     new conv_thr            =       0.0000010000 Ry

[...]

     iteration #  4     ecut=    50.00 Ry     beta= 0.10
     Davidson diagonalization with overlap
     c_bands:  1 eigenvalues not converged
     ethr =  2.86E-06,  avg # of iterations =  4.7

[...]

     Threshold (ethr) on eigenvalues was too large:
     Diagonalizing with lowered threshold

     Davidson diagonalization with overlap
     ethr =  2.37E-08,  avg # of iterations =  5.1

[...]

     Total force =     0.003589     Total SCF correction =     0.000470
     SCF correction compared to forces is large: reduce conv_thr to get better values
     Energy error            =      1.9E-05 Ry
     Gradient error          =      1.4E-03 Ry/Bohr

     number of scf cycles    =  21
     number of bfgs steps    =  20

     energy             old  =  -21704.1385237165 Ry
     energy             new  =  -21704.1385423007 Ry

     CASE: energy            _new < energy            _old

     new trust radius        =       0.0029783603 bohr
     new conv_thr            =       0.0000000100 Ry

ATOMIC_POSITIONS (angstrom)
Au            2.0400000000        1.4424978336        1.0102574255    0   0   1
Au            2.0400000000        4.3274935009        1.0102575391    0   0   1
Au            0.0000000000        0.0000000000        1.9139381234    0   0   1
Au            0.0000000000        2.8849956672        1.9139378598    0   0   1
Au            2.0400000000        1.4424978336        3.5242098403    0   0   1
Au            2.0400000000        4.3274935009        3.5242099143    0   0   1
Au            0.0000000000        0.0000000000        4.6038456079    0   0   1
Au            0.0000000000        2.8849956672        4.6038453960    0   0   1
Au            2.0400000000        1.4424978336        6.1110172430    0   0   1
Au            2.0400000000        4.3274935009        6.1110174419    0   0   1
Au            0.0000000000        0.0000000000        7.1908190337    0   0   1
Au            0.0000000000        2.8849956672        7.1908187901    0   0   1
Au            2.0400000000        1.4424978336        8.7999286767    0   0   1
Au            2.0400000000        4.3274935009        8.7999289172    0   0   1
Au            0.0000000000        0.0000000000        9.7054477233    0   0   1
Au            0.0000000000        2.8849956672        9.7054476286    0   0   1
Au            3.8760000000        1.4424978336       11.7588639143    0   0   1
Au            3.8760000000        4.3274935009       11.7588640243    0   0   1
Au            1.8360000000        0.0000000000       12.5353268953    0   0   1
Au            1.8360000000        2.8849956672       12.5353263781    0   0   1
Au            3.8760000000        1.4424978336       14.2850121430    0   0   1
Au            3.8760000000        4.3274935009       14.2850124005    0   0   1
Au            1.8360000000        0.0000000000       15.1846010615    0   0   1
Au            1.8360000000        2.8849956672       15.1846008904    0   0   1
Au            3.8760000000        1.4424978336       16.9345315292    0   0   1
Au            3.8760000000        4.3274935009       16.9345320214    0   0   1
Au            1.8360000000        0.0000000000       17.7095036805    0   0   1
Au            1.8360000000        2.8849956672       17.7095036194    0   0   1

     Writing config-only to output data dir ./pwscf.save/
     NEW-OLD atomic charge density approx. for the potential

     Self-consistent Calculation

[...]

     Threshold (ethr) on eigenvalues was too large:
     Diagonalizing with lowered threshold

     Davidson diagonalization with overlap
     ethr =  1.17E-08,  avg # of iterations =  3.8

[...]

     total energy              =  -21704.13855697 Ry
     estimated scf accuracy    <       0.00000001 Ry

     iteration # 11     ecut=    50.00 Ry     beta= 0.10
     Davidson diagonalization with overlap
     ethr =  3.64E-12,  avg # of iterations =  2.0

     End of self-consistent calculation

[...]

          k = 0.3750-0.0589 0.0000 ( 17796 PWs)   bands (ev):

[...]

          k =-0.5000-0.3536 0.0000 ( 17712 PWs)   bands (ev):

     9.4473   9.4473   9.4498   9.4498   9.7522   9.7522   9.7551   9.7551
    10.1787  10.1787  10.1796  10.1796  10.3493  10.3493  10.3498  10.3498
    10.4552  10.4552  10.4564  10.4564  10.6477  10.6477  10.6479  10.6479
    10.8725  10.8725  10.8740  10.8740  11.1571  11.1571  11.1586  11.1586
    11.2466  11.2466  11.2481  11.2481  11.3873  11.3873  11.3902  11.3902
    11.4596  11.4596  11.4606  11.4606  11.6619  11.6619  11.6627  11.6627
    11.7006  11.7006  11.7009  11.7009  11.7754  11.7754  11.7756  11.7756
    11.9136  11.9136  11.9142  11.9142  12.0458  12.0458  12.0461  12.0461
    12.1478  12.1478  12.1485  12.1485  12.2822  12.2822  12.2824  12.2824
    12.3352  12.3352  12.3370  12.3370  12.5533  12.5533  12.5538  12.5538
    12.8003  12.8003  12.8015  12.8015  12.9356  12.9356  12.9362  12.9362
    13.4021  13.4021  13.4028  13.4028  13.5344  13.5344  13.5346  13.5346
    13.5930  13.5930  13.5931  13.5931  13.6248  13.6248  13.6250  13.6250
    13.8968  13.8968  13.8973  13.8973  13.9929  13.9929  13.9931  13.9931
    14.2167  14.2167  14.2173  14.2173  14.2929  14.2929  14.2939  14.2939
    14.6410  14.6410  14.6413  14.6413  14.7703  14.7703  14.7711  14.7711
    14.9390  14.9390  14.9393  14.9393  15.3960  15.3960  15.3965  15.3965
    15.6364  15.6364  15.6371  15.6371  15.9826  15.9826  15.9837  15.9837
    16.1034  16.1034  16.1039  16.1039  16.5886  16.5886  16.5888  16.5888
    17.1613  17.1613  17.1616  17.1616  17.5764  17.5764  17.5768  17.5768
    19.2556  19.2556  19.2559  19.2559  19.5609  19.5609  19.5613  19.5613
    22.0564  22.0564  22.0567  22.0567  24.1093  24.1093  24.1108  24.1108
    25.5380  25.5380  25.5383  25.5383  26.0423  26.0423  26.0429  26.0429
    26.3393

     the Fermi energy is    18.2801 ev

!    total energy              =  -21704.13855696 Ry

     total all-electron energy =  -1064671.829106 Ry
     estimated scf accuracy    <          1.5E-09 Ry
     smearing contrib. (-TS)   =      -3.22810291 Ry
     internal energy E=F+TS    =  -21700.91045405 Ry

     The total energy is F=E-TS. E is the sum of the following terms:
     one-electron contribution =     407.26881707 Ry
     hartree contribution      =     219.93152806 Ry
     xc contribution           =    -901.70211525 Ry
     ewald contribution        =   -2034.85132511 Ry
     one-center paw contrib.   =  -19391.55735882 Ry

     convergence has been achieved in  11 iterations

     Forces acting on atoms (cartesian axes, Ry/au):

     atom    1 type  1   force =     0.01727008   -0.00000011    0.00055043
     atom    2 type  1   force =     0.01727009    0.00000010    0.00055032
     atom    3 type  1   force =    -0.00216498    0.00000002    0.00020232
     atom    4 type  1   force =    -0.00216496    0.00000002    0.00020241
     atom    5 type  1   force =     0.00040900   -0.00000003    0.00035032
     atom    6 type  1   force =     0.00040904   -0.00000003    0.00035043
     atom    7 type  1   force =     0.00011169    0.00000001   -0.00097001
     atom    8 type  1   force =     0.00011170   -0.00000003   -0.00097015
     atom    9 type  1   force =     0.00011129   -0.00000003    0.00079609
     atom   10 type  1   force =     0.00011127    0.00000008    0.00079605
     atom   11 type  1   force =     0.00040806    0.00000002   -0.00010813
     atom   12 type  1   force =     0.00040807    0.00000003   -0.00010787
     atom   13 type  1   force =    -0.00216085   -0.00000007    0.00023424
     atom   14 type  1   force =    -0.00216083    0.00000007    0.00023420
     atom   15 type  1   force =     0.01724510   -0.00000005   -0.00074305
     atom   16 type  1   force =     0.01724507    0.00000009   -0.00074301
     atom   17 type  1   force =    -0.01748951   -0.00000005    0.00065372
     atom   18 type  1   force =    -0.01748958   -0.00000005    0.00065355
     atom   19 type  1   force =     0.00244395    0.00000009   -0.00015083
     atom   20 type  1   force =     0.00244389   -0.00000003   -0.00015070
     atom   21 type  1   force =    -0.00055754   -0.00000003   -0.00090118
     atom   22 type  1   force =    -0.00055753    0.00000006   -0.00090117
     atom   23 type  1   force =    -0.00056070   -0.00000002    0.00033815
     atom   24 type  1   force =    -0.00056073   -0.00000005    0.00033822
     atom   25 type  1   force =     0.00244983    0.00000001    0.00000368
     atom   26 type  1   force =     0.00244982   -0.00000003    0.00000364
     atom   27 type  1   force =    -0.01751538    0.00000012   -0.00025582
     atom   28 type  1   force =    -0.01751538   -0.00000010   -0.00025585

     Total force =     0.002864     Total SCF correction =     0.000145
     Energy error            =      1.5E-05 Ry
     Gradient error          =      9.7E-04 Ry/Bohr

     bfgs converged in  22 scf cycles and  21 bfgs steps
     (criteria: energy <  1.0E-04 Ry, force <  1.0E-03 Ry/Bohr)

     End of BFGS Geometry Optimization

     Final energy             =  -21704.1385569604 Ry

     File ./pwscf.bfgs deleted, as requested
Begin final coordinates

ATOMIC_POSITIONS (angstrom)
Au            2.0400000000        1.4424978336        1.0102574255    0   0   1
Au            2.0400000000        4.3274935009        1.0102575391    0   0   1
Au            0.0000000000        0.0000000000        1.9139381234    0   0   1
Au            0.0000000000        2.8849956672        1.9139378598    0   0   1
Au            2.0400000000        1.4424978336        3.5242098403    0   0   1
Au            2.0400000000        4.3274935009        3.5242099143    0   0   1
Au            0.0000000000        0.0000000000        4.6038456079    0   0   1
Au            0.0000000000        2.8849956672        4.6038453960    0   0   1
Au            2.0400000000        1.4424978336        6.1110172430    0   0   1
Au            2.0400000000        4.3274935009        6.1110174419    0   0   1
Au            0.0000000000        0.0000000000        7.1908190337    0   0   1
Au            0.0000000000        2.8849956672        7.1908187901    0   0   1
Au            2.0400000000        1.4424978336        8.7999286767    0   0   1
Au            2.0400000000        4.3274935009        8.7999289172    0   0   1
Au            0.0000000000        0.0000000000        9.7054477233    0   0   1
Au            0.0000000000        2.8849956672        9.7054476286    0   0   1
Au            3.8760000000        1.4424978336       11.7588639143    0   0   1
Au            3.8760000000        4.3274935009       11.7588640243    0   0   1
Au            1.8360000000        0.0000000000       12.5353268953    0   0   1
Au            1.8360000000        2.8849956672       12.5353263781    0   0   1
Au            3.8760000000        1.4424978336       14.2850121430    0   0   1
Au            3.8760000000        4.3274935009       14.2850124005    0   0   1
Au            1.8360000000        0.0000000000       15.1846010615    0   0   1
Au            1.8360000000        2.8849956672       15.1846008904    0   0   1
Au            3.8760000000        1.4424978336       16.9345315292    0   0   1
Au            3.8760000000        4.3274935009       16.9345320214    0   0   1
Au            1.8360000000        0.0000000000       17.7095036805    0   0   1
Au            1.8360000000        2.8849956672       17.7095036194    0   0   1
End final coordinates

     Writing all to output data dir ./pwscf.save/

     General routines

     Parallel routines

   This run was terminated on:  19:26:40  19Mar2024

   JOB DONE.