     Program PWSCF v.7.0 starts on  2Mar2024 at  8:11:48

     R & G space division:  proc/nbgrp/npool/nimage =      10

     Reading input from GSF110_0.05.in
Warning: card &CELL ignored
Warning: card / ignored

     Current dimensions of program PWSCF are:
     Max number of different atomic species (ntypx) = 10
     Max number of k-points (npk) =  40000
     Max angular momentum in pseudopotentials (lmaxx) =  4

     File ./pwscf.bfgs deleted, as requested
     file Au.pbe-n-kjpaw_psl.1.0.0.UPF: wavefunction(s)  6S 5D renormalized
     Found identity + (  0.0000 -0.5000  0.0000) symmetry
     This is a supercell, fractional translations are disabled
     Message from routine setup:
     using ibrav=0 with symmetry is DISCOURAGED, use correct ibrav instead

     Using Slab Decomposition

     bravais-lattice index     =            0
     lattice parameter (alat)  =       7.7101  a.u.
     unit-cell volume          =    2979.1368 (a.u.)^3
     number of atoms/cell      =           28
     number of atomic types    =            1
     number of electrons       =       308.00
     number of Kohn-Sham states=          185
     kinetic-energy cutoff     =      50.0000  Ry
     charge density cutoff     =     200.0000  Ry
     scf convergence threshold =      1.0E-06
     mixing beta               =       0.1000
     number of iterations used =            8  plain     mixing
     Exchange-correlation= SLA  PW   PBX  PBC
                           (   1   4   3   4   0   0   0)

     celldm(1)=   7.710083  celldm(2)=   0.000000  celldm(3)=   0.000000
     celldm(4)=   0.000000  celldm(5)=   0.000000  celldm(6)=   0.000000

     crystal axes: (cart. coord. in units of alat)
               a(1) = (   1.000000   0.000000   0.000000 )
               a(2) = (   0.000000   1.414214   0.000000 )
               a(3) = (   0.000000   0.000000   4.596194 )

     reciprocal axes: (cart. coord. in units 2 pi/alat)
               b(1) = (  1.000000  0.000000  0.000000 )
               b(2) = (  0.000000  0.707107  0.000000 )
               b(3) = (  0.000000  0.000000  0.217571 )

     PseudoPot. # 1 for Au read from file:
     ./Au.pbe-n-kjpaw_psl.1.0.0.UPF
     MD5 check sum: 4db85c736373c707a97ce4c36c2a9d23
     Pseudo is Projector augmented-wave + core cor, Zval = 11.0
     Generated using &quot;atomic&quot; code by A. Dal Corso  v.6.3
     Shape of augmentation charge: PSQ
     Using radial grid of 1279 points,  6 beta functions with:
                l(1) =   0
                l(2) =   0
                l(3) =   1
                l(4) =   1
                l(5) =   2
                l(6) =   2
     Q(r) pseudized with 0 coefficients

     atomic species   valence    mass     pseudopotential
        Au            11.00   196.96657     Au( 1.00)

      2 Sym. Ops. (no inversion) found

   Cartesian axes

     site n.     atom                  positions (alat units)
         1           Au  tau(   1) = (   0.5000000   0.3535534   0.0000000  )
         2           Au  tau(   2) = (   0.5000000   1.0606602   0.0000000  )
         3           Au  tau(   3) = (   0.0000000   0.0000000   0.3535534  )
         4           Au  tau(   4) = (   0.0000000   0.7071068   0.3535534  )
         5           Au  tau(   5) = (   0.5000000   0.3535534   0.7071068  )
         6           Au  tau(   6) = (   0.5000000   1.0606602   0.7071068  )
         7           Au  tau(   7) = (   0.0000000   0.0000000   1.0606602  )
         8           Au  tau(   8) = (   0.0000000   0.7071068   1.0606602  )
         9           Au  tau(   9) = (   0.5000000   0.3535534   1.4142136  )
        10           Au  tau(  10) = (   0.5000000   1.0606602   1.4142136  )
        11           Au  tau(  11) = (   0.0000000   0.0000000   1.7677670  )
        12           Au  tau(  12) = (   0.0000000   0.7071068   1.7677670  )
        13           Au  tau(  13) = (   0.5000000   0.3535534   2.1213203  )
        14           Au  tau(  14) = (   0.5000000   1.0606602   2.1213203  )
        15           Au  tau(  15) = (   0.0000000   0.0000000   2.4748737  )
        16           Au  tau(  16) = (   0.0000000   0.7071068   2.4748737  )
        17           Au  tau(  17) = (   0.5500000   0.3535534   2.8284271  )
        18           Au  tau(  18) = (   0.5500000   1.0606602   2.8284271  )
        19           Au  tau(  19) = (   0.0500000   0.0000000   3.1819805  )
        20           Au  tau(  20) = (   0.0500000   0.7071068   3.1819805  )
        21           Au  tau(  21) = (   0.5500000   0.3535534   3.5355339  )
        22           Au  tau(  22) = (   0.5500000   1.0606602   3.5355339  )
        23           Au  tau(  23) = (   0.0500000   0.0000000   3.8890873  )
        24           Au  tau(  24) = (   0.0500000   0.7071068   3.8890873  )
        25           Au  tau(  25) = (   0.5500000   0.3535534   4.2426407  )
        26           Au  tau(  26) = (   0.5500000   1.0606602   4.2426407  )
        27           Au  tau(  27) = (   0.0500000   0.0000000   4.5961941  )
        28           Au  tau(  28) = (   0.0500000   0.7071068   4.5961941  )

     number of k points=    35  Gaussian smearing, width (Ry)=  0.0200
                       cart. coord. in units 2pi/alat
        k(    1) = (   0.0000000   0.0000000   0.0000000), wk =   0.0208333
        k(    2) = (   0.0000000   0.0589256   0.0000000), wk =   0.0416667
        k(    3) = (   0.0000000   0.1178511   0.0000000), wk =   0.0416667
        k(    4) = (   0.0000000   0.1767767   0.0000000), wk =   0.0416667
        k(    5) = (   0.0000000   0.2357023   0.0000000), wk =   0.0416667
        k(    6) = (   0.0000000   0.2946278   0.0000000), wk =   0.0416667
        k(    7) = (   0.0000000  -0.3535534   0.0000000), wk =   0.0208333
        k(    8) = (   0.1250000   0.0000000   0.0000000), wk =   0.0416667
        k(    9) = (   0.1250000   0.0589256   0.0000000), wk =   0.0833333
        k(   10) = (   0.1250000   0.1178511   0.0000000), wk =   0.0833333
        k(   11) = (   0.1250000   0.1767767   0.0000000), wk =   0.0833333
        k(   12) = (   0.1250000   0.2357023   0.0000000), wk =   0.0833333
        k(   13) = (   0.1250000   0.2946278   0.0000000), wk =   0.0833333
        k(   14) = (   0.1250000  -0.3535534   0.0000000), wk =   0.0416667
        k(   15) = (   0.2500000   0.0000000   0.0000000), wk =   0.0416667
        k(   16) = (   0.2500000   0.0589256   0.0000000), wk =   0.0833333
        k(   17) = (   0.2500000   0.1178511   0.0000000), wk =   0.0833333
        k(   18) = (   0.2500000   0.1767767   0.0000000), wk =   0.0833333
        k(   19) = (   0.2500000   0.2357023   0.0000000), wk =   0.0833333
        k(   20) = (   0.2500000   0.2946278   0.0000000), wk =   0.0833333
        k(   21) = (   0.2500000  -0.3535534   0.0000000), wk =   0.0416667
        k(   22) = (   0.3750000   0.0000000   0.0000000), wk =   0.0416667
        k(   23) = (   0.3750000   0.0589256   0.0000000), wk =   0.0833333
        k(   24) = (   0.3750000   0.1178511   0.0000000), wk =   0.0833333
        k(   25) = (   0.3750000   0.1767767   0.0000000), wk =   0.0833333
        k(   26) = (   0.3750000   0.2357023   0.0000000), wk =   0.0833333
        k(   27) = (   0.3750000   0.2946278   0.0000000), wk =   0.0833333
        k(   28) = (   0.3750000  -0.3535534   0.0000000), wk =   0.0416667
        k(   29) = (  -0.5000000   0.0000000   0.0000000), wk =   0.0208333
        k(   30) = (  -0.5000000   0.0589256   0.0000000), wk =   0.0416667
        k(   31) = (  -0.5000000   0.1178511   0.0000000), wk =   0.0416667
        k(   32) = (  -0.5000000   0.1767767   0.0000000), wk =   0.0416667
        k(   33) = (  -0.5000000   0.2357023   0.0000000), wk =   0.0416667
        k(   34) = (  -0.5000000   0.2946278   0.0000000), wk =   0.0416667
        k(   35) = (  -0.5000000  -0.3535534   0.0000000), wk =   0.0208333

     Initial potential from superposition of free atoms

     starting charge     307.9969, renormalised to     308.0000
     Starting wfcs are  252 randomized atomic wfcs
     Checking if some PAW data can be deallocated...

     Self-consistent Calculation

     iteration #  1     ecut=    50.00 Ry     beta= 0.10
     Davidson diagonalization with overlap
     ethr =  1.00E-02,  avg # of iterations =  4.2

     total energy              =  -21681.86005645 Ry
     estimated scf accuracy    <      35.96594856 Ry

[...]

     iteration #  6     ecut=    50.00 Ry     beta= 0.10
     Davidson diagonalization with overlap
     c_bands:  1 eigenvalues not converged
     c_bands:  1 eigenvalues not converged
     ethr =  1.87E-04,  avg # of iterations =  6.8

[...]

     iteration # 11     ecut=    50.00 Ry     beta= 0.10
     Davidson diagonalization with overlap
     c_bands:  1 eigenvalues not converged
     c_bands:  1 eigenvalues not converged
     c_bands:  1 eigenvalues not converged
     c_bands:  1 eigenvalues not converged
     c_bands:  1 eigenvalues not converged
     c_bands:  2 eigenvalues not converged
     ethr =  1.21E-06,  avg # of iterations = 11.7

[...]

     total energy              =  -21687.74985248 Ry
     estimated scf accuracy    <       0.00000121 Ry

     iteration # 20     ecut=    50.00 Ry     beta= 0.10
     Davidson diagonalization with overlap
     ethr =  3.93E-10,  avg # of iterations =  5.1

     End of self-consistent calculation

          k = 0.0000 0.0000 0.0000 ( 17807 PWs)   bands (ev):

     0.0188   0.3561   0.3563   0.3595   1.0940   1.1322   1.1327   1.7383
     1.8194   2.1378   2.6310   2.6317   3.6731   4.5530   5.2571   5.2575
     6.0350   6.5350   6.5354   6.8757   8.4207   8.4547   9.2410   9.7310
     9.7538  10.4171  10.4760  10.4763  10.9214  11.0468  11.0479  11.1445
    11.1606  11.2574  11.2758  11.3277  11.3556  11.4023  11.4700  11.4867
    11.5472  11.5728  11.5916  11.6132  11.6313  11.7341  11.7522  11.7750
    11.8895  11.8995  11.9407  11.9649  12.0683  12.0946  12.1131  12.1171
    12.1843  12.2653  12.3385  12.3502  12.4853  12.5064  12.5336  12.7140
    12.7333  12.7388  12.7466  12.8140  12.8635  12.9422  12.9806  13.0017
    13.1449  13.1476  13.1496  13.2849  13.2986  13.3127  13.4379  13.4413
    13.4691  13.5501  13.5592  13.6956  13.7578  13.7666  13.8993  13.9483
    14.0624  14.0732  14.2534  14.3151  14.3340  14.3490  14.3627  14.4357
    14.5006  14.5133  14.5236  14.5289  14.6404  14.7079  14.7671  14.7880
    14.7933  14.8772  14.9142  14.9175  14.9182  14.9307  15.0038  15.0375
    15.1681  15.1767  15.2073  15.2603  15.2995  15.3346  15.3376  15.5115
    15.5930  15.6010  15.6562  15.6613  15.7155  15.8059  15.8871  15.9468
    15.9498  15.9791  15.9995  16.0385  16.0770  16.1056  16.2279  16.3113
    16.3158  16.3960  16.3988  16.4445  16.5858  16.9174  16.9179  17.0375
    17.0829  17.1083  17.1461  17.1463  17.6450  17.6452  17.7206  17.9253
    17.9273  18.0660  18.0786  18.0819  18.4211  18.4212  18.8579  18.8598
    19.8856  19.9963  20.2444  20.5993  21.3891  21.5165  21.5166  22.4419
    22.7297  23.0661  23.0727  23.0729  23.3499  23.6850  24.2098  24.7559
    24.7587  24.8796  24.8831  25.3780  25.4230  25.4231  25.4805  25.8732
    25.8970

[...]

          k = 0.3750-0.3536 0.0000 ( 17776 PWs)   bands (ev):

[...]

          k =-0.5000 0.0000 0.0000 ( 17814 PWs)   bands (ev):

[...]

          k =-0.5000-0.3536 0.0000 ( 17712 PWs)   bands (ev):

     0.2408   0.2408   0.4324   0.4324   1.2902   1.2902   1.3987   1.3987
     2.2723   2.2723   2.3110   2.3110   4.6028   4.6028   5.3417   5.3417
     6.4785   6.4785   7.0065   7.0065   9.8108   9.8108   9.9566   9.9566
    10.8369  10.8369  11.0443  11.0443  11.1650  11.1650  11.2301  11.2301
    11.2846  11.2847  11.6006  11.6006  11.6205  11.6205  11.6875  11.6875
    11.8288  11.8288  11.8923  11.8923  11.9388  11.9388  12.0161  12.0161
    12.1524  12.1524  12.3952  12.3952  12.6578  12.6578  12.7400  12.7400
    12.7880  12.7880  12.8267  12.8267  12.9014  12.9014  12.9255  12.9255
    12.9530  12.9531  13.0398  13.0398  13.0509  13.0509  13.1040  13.1040
    13.1873  13.1873  13.1946  13.1946  13.2635  13.2635  13.2782  13.2782
    13.2830  13.2830  13.3995  13.3995  13.4692  13.4692  13.4823  13.4823
    13.5653  13.5653  13.6340  13.6340  13.6873  13.6873  13.8083  13.8083
    13.8184  13.8184  13.9889  13.9889  14.0086  14.0086  14.1020  14.1020
    14.1845  14.1845  14.2545  14.2545  14.2791  14.2791  14.3544  14.3544
    14.4105  14.4105  14.5021  14.5021  14.7915  14.7915  14.8339  14.8339
    15.0012  15.0012  15.0178  15.0178  15.1111  15.1111  15.1712  15.1713
    15.5590  15.5590  15.7735  15.7735  15.8089  15.8089  15.8276  15.8276
    15.9401  15.9401  16.0698  16.0698  16.3457  16.3457  16.7312  16.7312
    16.9373  16.9373  16.9521  16.9521  17.4481  17.4481  17.4704  17.4704
    17.9726  17.9726  18.1403  18.1403  18.3402  18.3402  18.4771  18.4771
    19.7137  19.7137  19.9328  19.9328  19.9420  19.9420  20.3336  20.3336
    22.9637  22.9637  23.2716  23.2716  23.4287  23.4287  23.6013  23.6014
    23.6147  23.6147  23.9921  23.9922  26.3280  26.3287  26.4241  26.4253
    26.4748

     the Fermi energy is    18.1201 ev

!    total energy              =  -21687.74985253 Ry

     total all-electron energy =  -1064655.440402 Ry
     estimated scf accuracy    <       0.00000058 Ry
     smearing contrib. (-TS)   =      -0.02321146 Ry
     internal energy E=F+TS    =  -21687.72664107 Ry

     The total energy is F=E-TS. E is the sum of the following terms:
     one-electron contribution =      66.72596071 Ry
     hartree contribution      =     387.55636859 Ry
     xc contribution           =    -907.24326899 Ry
     ewald contribution        =   -1841.03167455 Ry
     one-center paw contrib.   =  -19393.73402683 Ry

     convergence has been achieved in  20 iterations

     Forces acting on atoms (cartesian axes, Ry/au):

     atom    1 type  1   force =    -0.69733367   -0.00000274    7.23048889
     atom    2 type  1   force =    -0.69733367    0.00000274    7.23048889
     atom    3 type  1   force =    -1.03646807    0.00000000    7.35717481
     atom    4 type  1   force =    -1.03647138    0.00000000    7.35719233
     atom    5 type  1   force =     0.00875289    0.00000942    0.02962341
     atom    6 type  1   force =     0.00875289   -0.00000942    0.02962341
     atom    7 type  1   force =     0.00046012    0.00000000   -0.00044303
     atom    8 type  1   force =     0.00045747    0.00000000   -0.00044987
     atom    9 type  1   force =    -0.00055812    0.00000335    0.00164964
     atom   10 type  1   force =    -0.00055812   -0.00000335    0.00164964
     atom   11 type  1   force =     0.00037164    0.00000000   -0.00067192
     atom   12 type  1   force =     0.00037091    0.00000000   -0.00067638
     atom   13 type  1   force =    -0.00484663    0.00000049    0.00189425
     atom   14 type  1   force =    -0.00484663   -0.00000049    0.00189425
     atom   15 type  1   force =     0.03263611    0.00000000   -0.01104677
     atom   16 type  1   force =     0.03263389    0.00000000   -0.01104006
     atom   17 type  1   force =    -0.03305044    0.00000451    0.01022237
     atom   18 type  1   force =    -0.03305044   -0.00000451    0.01022237
     atom   19 type  1   force =     0.00579986    0.00000000   -0.00221320
     atom   20 type  1   force =     0.00580133    0.00000000   -0.00221192
     atom   21 type  1   force =    -0.00082171    0.00000417    0.00060738
     atom   22 type  1   force =    -0.00082171   -0.00000417    0.00060738
     atom   23 type  1   force =    -0.00881084    0.00000000   -0.02958465
     atom   24 type  1   force =    -0.00881318    0.00000000   -0.02959341
     atom   25 type  1   force =     1.03662582   -0.00000376   -7.35717684
     atom   26 type  1   force =     1.03662582    0.00000376   -7.35717684
     atom   27 type  1   force =     0.69724765    0.00000000   -7.23053588
     atom   28 type  1   force =     0.69724821    0.00000000   -7.23051825

     Total force =    20.781836     Total SCF correction =     0.002849

     Writing all to output data dir ./pwscf.save/

     General routines

     Parallel routines

   This run was terminated on:   8:26:45   2Mar2024

   JOB DONE.