     Program PWSCF v.7.0 starts on 14Mar2024 at  4:24: 8

     R & G space division:  proc/nbgrp/npool/nimage =      10

     Reading input from GSF110R_0.35.in
Warning: card &CELL ignored
Warning: card / ignored

     Current dimensions of program PWSCF are:
     Max number of different atomic species (ntypx) = 10
     Max number of k-points (npk) =  40000
     Max angular momentum in pseudopotentials (lmaxx) =  4

     File ./pwscf.update deleted, as requested

     File ./pwscf.bfgs deleted, as requested
     file Au.pbe-n-kjpaw_psl.1.0.0.UPF: wavefunction(s)  6S 5D renormalized
     Found identity + (  0.0000 -0.5000  0.0000) symmetry
     This is a supercell, fractional translations are disabled

     Using Slab Decomposition

     bravais-lattice index     =            0
     lattice parameter (alat)  =       7.7101  a.u.
     unit-cell volume          =    2979.1368 (a.u.)^3
     number of atoms/cell      =           28
     number of atomic types    =            1
     number of electrons       =       308.00
     number of Kohn-Sham states=          185
     kinetic-energy cutoff     =      50.0000  Ry
     charge density cutoff     =     200.0000  Ry
     scf convergence threshold =      1.0E-06
     mixing beta               =       0.1000
     number of iterations used =            8  plain     mixing
     energy convergence thresh.=      1.0E-04
     force convergence thresh. =      1.0E-03
     Exchange-correlation= SLA  PW   PBX  PBC
                           (   1   4   3   4   0   0   0)
     nstep                     =           50

     celldm(1)=   7.710083  celldm(2)=   0.000000  celldm(3)=   0.000000
     celldm(4)=   0.000000  celldm(5)=   0.000000  celldm(6)=   0.000000

     crystal axes: (cart. coord. in units of alat)
               a(1) = (   1.000000   0.000000   0.000000 )
               a(2) = (   0.000000   1.414214   0.000000 )
               a(3) = (   0.000000   0.000000   4.596194 )

     reciprocal axes: (cart. coord. in units 2 pi/alat)
               b(1) = (  1.000000  0.000000  0.000000 )
               b(2) = (  0.000000  0.707107  0.000000 )
               b(3) = (  0.000000  0.000000  0.217571 )

     PseudoPot. # 1 for Au read from file:
     ./Au.pbe-n-kjpaw_psl.1.0.0.UPF
     MD5 check sum: 4db85c736373c707a97ce4c36c2a9d23
     Pseudo is Projector augmented-wave + core cor, Zval = 11.0
     Generated using &quot;atomic&quot; code by A. Dal Corso  v.6.3
     Shape of augmentation charge: PSQ
     Using radial grid of 1279 points,  6 beta functions with:
                l(1) =   0
                l(2) =   0
                l(3) =   1
                l(4) =   1
                l(5) =   2
                l(6) =   2
     Q(r) pseudized with 0 coefficients

     atomic species   valence    mass     pseudopotential
        Au            11.00   196.96657     Au( 1.00)

     No symmetry found

   Cartesian axes

     site n.     atom                  positions (alat units)
         1           Au  tau(   1) = (   0.5000000   0.3535534   0.0000000  )
         2           Au  tau(   2) = (   0.5000000   1.0606602   0.0000000  )
         3           Au  tau(   3) = (   0.0000000   0.0000000   0.3535534  )
         4           Au  tau(   4) = (   0.0000000   0.7071068   0.3535534  )
         5           Au  tau(   5) = (   0.5000000   0.3535534   0.7071068  )
         6           Au  tau(   6) = (   0.5000000   1.0606602   0.7071068  )
         7           Au  tau(   7) = (   0.0000000   0.0000000   1.0606602  )
         8           Au  tau(   8) = (   0.0000000   0.7071068   1.0606602  )
         9           Au  tau(   9) = (   0.5000000   0.3535534   1.4142136  )
        10           Au  tau(  10) = (   0.5000000   1.0606602   1.4142136  )
        11           Au  tau(  11) = (   0.0000000   0.0000000   1.7677670  )
        12           Au  tau(  12) = (   0.0000000   0.7071068   1.7677670  )
        13           Au  tau(  13) = (   0.5000000   0.3535534   2.1213203  )
        14           Au  tau(  14) = (   0.5000000   1.0606602   2.1213203  )
        15           Au  tau(  15) = (   0.0000000   0.0000000   2.4748737  )
        16           Au  tau(  16) = (   0.0000000   0.7071068   2.4748737  )
        17           Au  tau(  17) = (   0.8500000   0.3535534   2.8284271  )
        18           Au  tau(  18) = (   0.8500000   1.0606602   2.8284271  )
        19           Au  tau(  19) = (   0.3500000   0.0000000   3.1819805  )
        20           Au  tau(  20) = (   0.3500000   0.7071068   3.1819805  )
        21           Au  tau(  21) = (   0.8500000   0.3535534   3.5355339  )
        22           Au  tau(  22) = (   0.8500000   1.0606602   3.5355339  )
        23           Au  tau(  23) = (   0.3500000   0.0000000   3.8890873  )
        24           Au  tau(  24) = (   0.3500000   0.7071068   3.8890873  )
        25           Au  tau(  25) = (   0.8500000   0.3535534   4.2426407  )
        26           Au  tau(  26) = (   0.8500000   1.0606602   4.2426407  )
        27           Au  tau(  27) = (   0.3500000   0.0000000   4.5961941  )
        28           Au  tau(  28) = (   0.3500000   0.7071068   4.5961941  )

     number of k points=    50  Gaussian smearing, width (Ry)=  0.2000
                       cart. coord. in units 2pi/alat
        k(    1) = (   0.0000000   0.0000000   0.0000000), wk =   0.0208333
        k(    2) = (   0.0000000   0.0589256   0.0000000), wk =   0.0416667
        k(    3) = (   0.0000000   0.1178511   0.0000000), wk =   0.0416667
        k(    4) = (   0.0000000   0.1767767   0.0000000), wk =   0.0416667
        k(    5) = (   0.0000000   0.2357023   0.0000000), wk =   0.0416667
        k(    6) = (   0.0000000   0.2946278   0.0000000), wk =   0.0416667
        k(    7) = (   0.0000000  -0.3535534   0.0000000), wk =   0.0208333
        k(    8) = (   0.1250000   0.0000000   0.0000000), wk =   0.0416667
        k(    9) = (   0.1250000   0.0589256   0.0000000), wk =   0.0416667
        k(   10) = (   0.1250000   0.1178511   0.0000000), wk =   0.0416667
        k(   11) = (   0.1250000   0.1767767   0.0000000), wk =   0.0416667
        k(   12) = (   0.1250000   0.2357023   0.0000000), wk =   0.0416667
        k(   13) = (   0.1250000   0.2946278   0.0000000), wk =   0.0416667
        k(   14) = (   0.1250000  -0.3535534   0.0000000), wk =   0.0416667
        k(   15) = (   0.1250000  -0.2946278   0.0000000), wk =   0.0416667
        k(   16) = (   0.1250000  -0.2357023   0.0000000), wk =   0.0416667
        k(   17) = (   0.1250000  -0.1767767   0.0000000), wk =   0.0416667
        k(   18) = (   0.1250000  -0.1178511   0.0000000), wk =   0.0416667
        k(   19) = (   0.1250000  -0.0589256   0.0000000), wk =   0.0416667
        k(   20) = (   0.2500000   0.0000000   0.0000000), wk =   0.0416667
        k(   21) = (   0.2500000   0.0589256   0.0000000), wk =   0.0416667
        k(   22) = (   0.2500000   0.1178511   0.0000000), wk =   0.0416667
        k(   23) = (   0.2500000   0.1767767   0.0000000), wk =   0.0416667
        k(   24) = (   0.2500000   0.2357023   0.0000000), wk =   0.0416667
        k(   25) = (   0.2500000   0.2946278   0.0000000), wk =   0.0416667
        k(   26) = (   0.2500000  -0.3535534   0.0000000), wk =   0.0416667
        k(   27) = (   0.2500000  -0.2946278   0.0000000), wk =   0.0416667
        k(   28) = (   0.2500000  -0.2357023   0.0000000), wk =   0.0416667
        k(   29) = (   0.2500000  -0.1767767   0.0000000), wk =   0.0416667
        k(   30) = (   0.2500000  -0.1178511   0.0000000), wk =   0.0416667
        k(   31) = (   0.2500000  -0.0589256   0.0000000), wk =   0.0416667
        k(   32) = (   0.3750000   0.0000000   0.0000000), wk =   0.0416667
        k(   33) = (   0.3750000   0.0589256   0.0000000), wk =   0.0416667
        k(   34) = (   0.3750000   0.1178511   0.0000000), wk =   0.0416667
        k(   35) = (   0.3750000   0.1767767   0.0000000), wk =   0.0416667
        k(   36) = (   0.3750000   0.2357023   0.0000000), wk =   0.0416667
        k(   37) = (   0.3750000   0.2946278   0.0000000), wk =   0.0416667
        k(   38) = (   0.3750000  -0.3535534   0.0000000), wk =   0.0416667
        k(   39) = (   0.3750000  -0.2946278   0.0000000), wk =   0.0416667
        k(   40) = (   0.3750000  -0.2357023   0.0000000), wk =   0.0416667
        k(   41) = (   0.3750000  -0.1767767   0.0000000), wk =   0.0416667
        k(   42) = (   0.3750000  -0.1178511   0.0000000), wk =   0.0416667
        k(   43) = (   0.3750000  -0.0589256   0.0000000), wk =   0.0416667
        k(   44) = (  -0.5000000   0.0000000   0.0000000), wk =   0.0208333
        k(   45) = (  -0.5000000   0.0589256   0.0000000), wk =   0.0416667
        k(   46) = (  -0.5000000   0.1178511   0.0000000), wk =   0.0416667
        k(   47) = (  -0.5000000   0.1767767   0.0000000), wk =   0.0416667
        k(   48) = (  -0.5000000   0.2357023   0.0000000), wk =   0.0416667
        k(   49) = (  -0.5000000   0.2946278   0.0000000), wk =   0.0416667
        k(   50) = (  -0.5000000  -0.3535534   0.0000000), wk =   0.0208333

     Initial potential from superposition of free atoms

     starting charge     307.9969, renormalised to     308.0000
     Starting wfcs are  252 randomized atomic wfcs
     Checking if some PAW data can be deallocated...

     Self-consistent Calculation

     iteration #  1     ecut=    50.00 Ry     beta= 0.10
     Davidson diagonalization with overlap
     ethr =  1.00E-02,  avg # of iterations =  4.0

     total energy              =  -21690.34935292 Ry
     estimated scf accuracy    <      14.80371978 Ry

[...]

     iteration #  8     ecut=    50.00 Ry     beta= 0.10
     Davidson diagonalization with overlap
     c_bands:  1 eigenvalues not converged
     c_bands:  1 eigenvalues not converged
     c_bands:  1 eigenvalues not converged
     ethr =  3.23E-05,  avg # of iterations =  9.4

[...]

     End of self-consistent calculation

          k = 0.0000 0.0000 0.0000 ( 17807 PWs)   bands (ev):

    -4.4542  -4.4542  -2.9312   0.1714   0.8318   0.8318   2.8258   3.9623
     4.3974   5.1738   6.1453   6.1453   6.5208   6.8081   7.0401   7.8616
     8.1873   8.2656   8.7455   8.7460   9.1247   9.4444   9.4752   9.7615
     9.7656  10.0390  10.0410  10.0470  10.2278  10.2317  10.4031  10.6792
    10.7528  10.7600  10.7858  10.9988  11.0241  11.0577  11.1906  11.1933
    11.2689  11.2751  11.3188  11.3736  11.4486  11.4692  11.5415  11.5748
    11.6589  11.6984  11.7177  11.7243  11.8175  11.8326  11.8655  11.9788
    11.9888  12.1600  12.1965  12.2260  12.2386  12.2472  12.3413  12.3520
    12.5812  12.6003  12.6406  12.6941  12.7189  12.7357  12.7694  12.8766
    12.9626  12.9809  13.0237  13.0389  13.0498  13.0778  13.1462  13.2002
    13.2282  13.2920  13.3625  13.3695  13.4648  13.4839  13.5196  13.5651
    13.6055  13.7214  13.7848  13.8031  13.9101  13.9950  14.1113  14.1285
    14.1324  14.1628  14.2126  14.2690  14.3018  14.4041  14.4643  14.5008
    14.5340  14.5873  14.6009  14.6836  14.6854  14.7533  14.7715  14.7918
    14.7980  14.8258  14.8750  14.9476  14.9920  15.0421  15.0583  15.1664
    15.2069  15.2103  15.3046  15.3156  15.3370  15.4723  15.4907  15.5752
[...]
     atom    9 type  1   force =     0.00006105    0.00000313    0.00097750
     atom   10 type  1   force =     0.00006429   -0.00000178    0.00097265
     atom   11 type  1   force =     0.00035479    0.00000428   -0.00267011
     atom   12 type  1   force =     0.00035109   -0.00000251   -0.00266529
     atom   13 type  1   force =    -0.01127964   -0.00000304    0.00181246
     atom   14 type  1   force =    -0.01127955    0.00000379    0.00181574
     atom   15 type  1   force =     0.33430374    0.00000401   -0.74475903
     atom   16 type  1   force =     0.33430399   -0.00000214   -0.74475826
     atom   17 type  1   force =    -0.33430333    0.00000416    0.74442704
     atom   18 type  1   force =    -0.33431029   -0.00000694    0.74443049
     atom   19 type  1   force =     0.01146004   -0.00000395   -0.00425476
     atom   20 type  1   force =     0.01145991    0.00000028   -0.00424750
     atom   21 type  1   force =    -0.00018777   -0.00000003   -0.00356422
     atom   22 type  1   force =    -0.00018733    0.00000522   -0.00356367
     atom   23 type  1   force =    -0.01313861    0.00000234   -0.05118915
     atom   24 type  1   force =    -0.01313890   -0.00000400   -0.05119361
     atom   25 type  1   force =     0.63471474    0.00000145   -0.72043914
     atom   26 type  1   force =     0.63470867   -0.00000159   -0.72044194
     atom   27 type  1   force =    -3.31811968   -0.00001129   -0.54974268
     atom   28 type  1   force =    -3.31814091    0.00000670   -0.54974672

     Total force =     2.348125     Total SCF correction =     0.001542

     BFGS Geometry Optimization
     Energy error            =      0.0E+00 Ry
     Gradient error          =      7.4E-01 Ry/Bohr

     number of scf cycles    =   1
     number of bfgs steps    =   0

     energy             new  =  -21692.6198574479 Ry

     new trust radius        =       0.5000000000 bohr
     new conv_thr            =       0.0000010000 Ry

ATOMIC_POSITIONS (angstrom)
Au            2.0400000000        1.4424978336        0.1952439580    0   0   1
Au            2.0400000000        4.3274935009        0.1952437688    0   0   1
Au            0.0000000000        0.0000000000        1.6984966481    0   0   1
Au            0.0000000000        2.8849956672        1.6984959358    0   0   1
Au            2.0400000000        1.4424978336        2.9037495955    0   0   1
Au            2.0400000000        4.3274935009        2.9037481080    0   0   1
Au            0.0000000000        0.0000000000        4.3297911690    0   0   1
Au            0.0000000000        2.8849956672        4.3297898507    0   0   1
Au            2.0400000000        1.4424978336        5.7703386077    0   0   1
Au            2.0400000000        4.3274935009        5.7703368858    0   0   1
Au            0.0000000000        0.0000000000        7.2115405663    0   0   1
Au            0.0000000000        2.8849956672        7.2115422764    0   0   1
Au            2.0400000000        1.4424978336        8.6556309100    0   0   1
Au            2.0400000000        4.3274935009        8.6556320738    0   0   1
Au            0.0000000000        0.0000000000        9.8328962298    0   0   1
Au            0.0000000000        2.8849956672        9.8328965057    0   0   1
Au            3.4680000000        1.4424978336       11.8044533264    0   0   1
Au            3.4680000000        4.3274935009       11.8044545548    0   0   1
Au            1.4280000000        0.0000000000       12.9809689243    0   0   1
Au            1.4280000000        2.8849956672       12.9809715061    0   0   1
Au            3.4680000000        1.4424978336       14.4237120854    0   0   1
Au            3.4680000000        4.3274935009       14.4237122808    0   0   1
Au            1.4280000000        0.0000000000       15.8492903341    0   0   1
Au            1.4280000000        2.8849956672       15.8492887476    0   0   1
Au            3.4680000000        1.4424978336       17.0540254644    0   0   1
Au            3.4680000000        4.3274935009       17.0540244692    0   0   1
Au            1.4280000000        0.0000000000       18.5571661855    0   0   1
Au            1.4280000000        2.8849956672       18.5571647507    0   0   1

     Writing config-only to output data dir ./pwscf.save/
     NEW-OLD atomic charge density approx. for the potential

     negative rho (up, down):  9.143E-04 0.000E+00

[...]

     Total force =     4.276080     Total SCF correction =     0.002427
     Energy error            =      3.5E+00 Ry
     Gradient error          =      2.1E+00 Ry/Bohr

[...]

     energy             old  =  -21692.6198574479 Ry
     energy             new  =  -21696.1410810224 Ry

     CASE: energy            _new < energy            _old

     WARNING: bfgs curvature condition failed, Theta= 0.859
     new trust radius        =       0.7500000000 bohr
     new conv_thr            =       0.0000010000 Ry

[...]

     Threshold (ethr) on eigenvalues was too large:
     Diagonalizing with lowered threshold

     Davidson diagonalization with overlap
     ethr =  3.97E-08,  avg # of iterations =  4.1

[...]

     Total force =     0.010465     Total SCF correction =     0.001167
     SCF correction compared to forces is large: reduce conv_thr to get better values
     Energy error            =      2.2E-04 Ry
     Gradient error          =      6.3E-03 Ry/Bohr

[...]

     Total force =     0.004697     Total SCF correction =     0.000209
     Energy error            =      4.6E-05 Ry
     Gradient error          =      1.7E-03 Ry/Bohr

     number of scf cycles    =  26
     number of bfgs steps    =  25

     energy             old  =  -21704.2340247285 Ry
     energy             new  =  -21704.2340710664 Ry

     CASE: energy            _new < energy            _old

     new trust radius        =       0.0043642817 bohr
     new conv_thr            =       0.0000000100 Ry

ATOMIC_POSITIONS (angstrom)
Au            2.0400000000        1.4424978336        0.9783396368    0   0   1
Au            2.0400000000        4.3274935009        0.9783397083    0   0   1
Au            0.0000000000        0.0000000000        1.9165764010    0   0   1
Au            0.0000000000        2.8849956672        1.9165757580    0   0   1
Au            2.0400000000        1.4424978336        3.5059795497    0   0   1
Au            2.0400000000        4.3274935009        3.5059800588    0   0   1
Au            0.0000000000        0.0000000000        4.6091844996    0   0   1
Au            0.0000000000        2.8849956672        4.6091840501    0   0   1
Au            2.0400000000        1.4424978336        6.1051384765    0   0   1
Au            2.0400000000        4.3274935009        6.1051387078    0   0   1
Au            0.0000000000        0.0000000000        7.2092054447    0   0   1
Au            0.0000000000        2.8849956672        7.2092054513    0   0   1
Au            2.0400000000        1.4424978336        8.8009030560    0   0   1
Au            2.0400000000        4.3274935009        8.8009028607    0   0   1
Au            0.0000000000        0.0000000000        9.7374272508    0   0   1
Au            0.0000000000        2.8849956672        9.7374271707    0   0   1
Au            3.4680000000        1.4424978336       11.7138003000    0   0   1
Au            3.4680000000        4.3274935009       11.7138002962    0   0   1
Au            1.4280000000        0.0000000000       12.5564689559    0   0   1
Au            1.4280000000        2.8849956672       12.5564680427    0   0   1
Au            3.4680000000        1.4424978336       14.2527584488    0   0   1
Au            3.4680000000        4.3274935009       14.2527588937    0   0   1
Au            1.4280000000        0.0000000000       15.2149879101    0   0   1
Au            1.4280000000        2.8849956672       15.2149862697    0   0   1
Au            3.4680000000        1.4424978336       16.9110720966    0   0   1
Au            3.4680000000        4.3274935009       16.9110730510    0   0   1
Au            1.4280000000        0.0000000000       17.7554622719    0   0   1
Au            1.4280000000        2.8849956672       17.7554611013    0   0   1

     Writing config-only to output data dir ./pwscf.save/
     NEW-OLD atomic charge density approx. for the potential

     Self-consistent Calculation

[...]

     Threshold (ethr) on eigenvalues was too large:
     Diagonalizing with lowered threshold

     Davidson diagonalization with overlap
     ethr =  1.22E-08,  avg # of iterations =  4.4

[...]

     iteration #  3     ecut=    50.00 Ry     beta= 0.10
     Davidson diagonalization with overlap
     c_bands:  1 eigenvalues not converged
     ethr =  2.97E-09,  avg # of iterations =  2.0

[...]

     total energy              =  -21704.23408887 Ry
     estimated scf accuracy    <       0.00000001 Ry

     iteration # 10     ecut=    50.00 Ry     beta= 0.10
     Davidson diagonalization with overlap
     ethr =  3.61E-12,  avg # of iterations =  4.9

     End of self-consistent calculation

[...]

          k = 0.3750-0.0589 0.0000 ( 17796 PWs)   bands (ev):

[...]

          k =-0.5000-0.3536 0.0000 ( 17712 PWs)   bands (ev):

     9.4654   9.4654   9.4668   9.4668   9.7801   9.7801   9.7818   9.7818
    10.2102  10.2102  10.2121  10.2121  10.3699  10.3699  10.3709  10.3709
    10.4615  10.4615  10.4617  10.4617  10.6993  10.6993  10.7010  10.7010
    10.9978  10.9978  10.9986  10.9986  11.1554  11.1554  11.1560  11.1560
    11.3516  11.3516  11.3527  11.3527  11.4169  11.4169  11.4193  11.4193
    11.5232  11.5232  11.5246  11.5246  11.6845  11.6845  11.6849  11.6849
    11.7578  11.7578  11.7582  11.7583  11.8068  11.8068  11.8075  11.8075
    11.9323  11.9323  11.9329  11.9329  12.0838  12.0838  12.0858  12.0858
    12.1631  12.1631  12.1635  12.1635  12.3231  12.3231  12.3242  12.3242
    12.4743  12.4743  12.4753  12.4753  12.5805  12.5805  12.5810  12.5810
    12.7108  12.7108  12.7113  12.7113  13.0022  13.0022  13.0027  13.0027
    13.3748  13.3748  13.3762  13.3762  13.4928  13.4928  13.4937  13.4937
    13.5823  13.5823  13.5831  13.5831  13.6534  13.6534  13.6539  13.6539
    13.8363  13.8363  13.8381  13.8381  13.9344  13.9344  13.9347  13.9347
    14.2112  14.2112  14.2119  14.2119  14.3280  14.3280  14.3283  14.3283
    14.6238  14.6238  14.6245  14.6245  14.7257  14.7257  14.7264  14.7264
    15.0141  15.0141  15.0144  15.0144  15.3817  15.3817  15.3825  15.3825
    15.6137  15.6137  15.6142  15.6142  15.8232  15.8232  15.8242  15.8242
    16.1775  16.1775  16.1778  16.1778  16.5465  16.5465  16.5469  16.5469
    17.2655  17.2655  17.2660  17.2660  17.5879  17.5879  17.5883  17.5883
    19.3209  19.3209  19.3214  19.3214  19.5732  19.5732  19.5736  19.5736
    22.1813  22.1813  22.1817  22.1817  23.9866  23.9866  23.9874  23.9874
    25.5442  25.5442  25.5447  25.5447  26.0306  26.0306  26.0312  26.0312
    26.3095

     the Fermi energy is    18.2807 ev

!    total energy              =  -21704.23408881 Ry

     total all-electron energy =  -1064671.924638 Ry
     estimated scf accuracy    <          5.7E-09 Ry
     smearing contrib. (-TS)   =      -3.22249245 Ry
     internal energy E=F+TS    =  -21701.01159636 Ry

     The total energy is F=E-TS. E is the sum of the following terms:
     one-electron contribution =     415.48684927 Ry
     hartree contribution      =     215.88308657 Ry
     xc contribution           =    -901.54005043 Ry
     ewald contribution        =   -2039.33464731 Ry
     one-center paw contrib.   =  -19391.50683446 Ry

     convergence has been achieved in  10 iterations

     Forces acting on atoms (cartesian axes, Ry/au):

     atom    1 type  1   force =     0.05087396    0.00000019    0.00052149
     atom    2 type  1   force =     0.05087393   -0.00000020    0.00052167
     atom    3 type  1   force =    -0.00680983   -0.00000005   -0.00077086
     atom    4 type  1   force =    -0.00680984   -0.00000010   -0.00077061
     atom    5 type  1   force =     0.00110450   -0.00000004    0.00059868
     atom    6 type  1   force =     0.00110449   -0.00000000    0.00059830
     atom    7 type  1   force =     0.00029845    0.00000008    0.00089130
     atom    8 type  1   force =     0.00029845   -0.00000004    0.00089119
     atom    9 type  1   force =     0.00029992    0.00000003    0.00033480
     atom   10 type  1   force =     0.00029988    0.00000003    0.00033489
     atom   11 type  1   force =     0.00110488    0.00000005   -0.00046677
     atom   12 type  1   force =     0.00110488   -0.00000001   -0.00046698
     atom   13 type  1   force =    -0.00680405   -0.00000006   -0.00032252
     atom   14 type  1   force =    -0.00680407   -0.00000002   -0.00032243
     atom   15 type  1   force =     0.05066342    0.00000002   -0.00024919
     atom   16 type  1   force =     0.05066345    0.00000002   -0.00024910
     atom   17 type  1   force =    -0.05141359   -0.00000011   -0.00049359
     atom   18 type  1   force =    -0.05141357    0.00000013   -0.00049337
     atom   19 type  1   force =     0.00763285   -0.00000001    0.00053992
     atom   20 type  1   force =     0.00763279    0.00000003    0.00053982
     atom   21 type  1   force =    -0.00148276   -0.00000011    0.00015894
     atom   22 type  1   force =    -0.00148276    0.00000014    0.00015881
     atom   23 type  1   force =    -0.00147849    0.00000003    0.00047046
     atom   24 type  1   force =    -0.00147835   -0.00000004    0.00047092
     atom   25 type  1   force =     0.00763592   -0.00000010   -0.00037414
     atom   26 type  1   force =     0.00763593    0.00000005   -0.00037435
     atom   27 type  1   force =    -0.05162520    0.00000014   -0.00083890
     atom   28 type  1   force =    -0.05162518   -0.00000008   -0.00083838

     Total force =     0.002877     Total SCF correction =     0.000362
     SCF correction compared to forces is large: reduce conv_thr to get better values
     Energy error            =      1.8E-05 Ry
     Gradient error          =      8.9E-04 Ry/Bohr

     bfgs converged in  27 scf cycles and  26 bfgs steps
     (criteria: energy <  1.0E-04 Ry, force <  1.0E-03 Ry/Bohr)

     End of BFGS Geometry Optimization

     Final energy             =  -21704.2340888127 Ry

     File ./pwscf.bfgs deleted, as requested
Begin final coordinates

ATOMIC_POSITIONS (angstrom)
Au            2.0400000000        1.4424978336        0.9783396368    0   0   1
Au            2.0400000000        4.3274935009        0.9783397083    0   0   1
Au            0.0000000000        0.0000000000        1.9165764010    0   0   1
Au            0.0000000000        2.8849956672        1.9165757580    0   0   1
Au            2.0400000000        1.4424978336        3.5059795497    0   0   1
Au            2.0400000000        4.3274935009        3.5059800588    0   0   1
Au            0.0000000000        0.0000000000        4.6091844996    0   0   1
Au            0.0000000000        2.8849956672        4.6091840501    0   0   1
Au            2.0400000000        1.4424978336        6.1051384765    0   0   1
Au            2.0400000000        4.3274935009        6.1051387078    0   0   1
Au            0.0000000000        0.0000000000        7.2092054447    0   0   1
Au            0.0000000000        2.8849956672        7.2092054513    0   0   1
Au            2.0400000000        1.4424978336        8.8009030560    0   0   1
Au            2.0400000000        4.3274935009        8.8009028607    0   0   1
Au            0.0000000000        0.0000000000        9.7374272508    0   0   1
Au            0.0000000000        2.8849956672        9.7374271707    0   0   1
Au            3.4680000000        1.4424978336       11.7138003000    0   0   1
Au            3.4680000000        4.3274935009       11.7138002962    0   0   1
Au            1.4280000000        0.0000000000       12.5564689559    0   0   1
Au            1.4280000000        2.8849956672       12.5564680427    0   0   1
Au            3.4680000000        1.4424978336       14.2527584488    0   0   1
Au            3.4680000000        4.3274935009       14.2527588937    0   0   1
Au            1.4280000000        0.0000000000       15.2149879101    0   0   1
Au            1.4280000000        2.8849956672       15.2149862697    0   0   1
Au            3.4680000000        1.4424978336       16.9110720966    0   0   1
Au            3.4680000000        4.3274935009       16.9110730510    0   0   1
Au            1.4280000000        0.0000000000       17.7554622719    0   0   1
Au            1.4280000000        2.8849956672       17.7554611013    0   0   1
End final coordinates

     Writing all to output data dir ./pwscf.save/

     General routines

     Parallel routines

   This run was terminated on:  14:23:46  14Mar2024

   JOB DONE.