     Program PWSCF v.7.0 starts on 20Mar2024 at 13:24:13

     R & G space division:  proc/nbgrp/npool/nimage =      10

     Reading input from GSF110R_0.5.in
Warning: card &CELL ignored
Warning: card / ignored

     Current dimensions of program PWSCF are:
     Max number of different atomic species (ntypx) = 10
     Max number of k-points (npk) =  40000
     Max angular momentum in pseudopotentials (lmaxx) =  4
     file Au.pbe-n-kjpaw_psl.1.0.0.UPF: wavefunction(s)  6S 5D renormalized
     Found identity + (  0.0000 -0.5000  0.0000) symmetry
     This is a supercell, fractional translations are disabled

     Using Slab Decomposition

     bravais-lattice index     =            0
     lattice parameter (alat)  =       7.7101  a.u.
     unit-cell volume          =    2979.1368 (a.u.)^3
     number of atoms/cell      =           28
     number of atomic types    =            1
     number of electrons       =       308.00
     number of Kohn-Sham states=          185
     kinetic-energy cutoff     =      50.0000  Ry
     charge density cutoff     =     300.0000  Ry
     scf convergence threshold =      1.0E-06
     mixing beta               =       0.1000
     number of iterations used =            8  plain     mixing
     energy convergence thresh.=      1.0E-04
     force convergence thresh. =      1.0E-03
     Exchange-correlation= SLA  PW   PBX  PBC
                           (   1   4   3   4   0   0   0)
     nstep                     =           50

     celldm(1)=   7.710083  celldm(2)=   0.000000  celldm(3)=   0.000000
     celldm(4)=   0.000000  celldm(5)=   0.000000  celldm(6)=   0.000000

     crystal axes: (cart. coord. in units of alat)
               a(1) = (   1.000000   0.000000   0.000000 )
               a(2) = (   0.000000   1.414214   0.000000 )
               a(3) = (   0.000000   0.000000   4.596194 )

     reciprocal axes: (cart. coord. in units 2 pi/alat)
               b(1) = (  1.000000  0.000000  0.000000 )
               b(2) = (  0.000000  0.707107  0.000000 )
               b(3) = (  0.000000  0.000000  0.217571 )

     PseudoPot. # 1 for Au read from file:
     ./Au.pbe-n-kjpaw_psl.1.0.0.UPF
     MD5 check sum: 4db85c736373c707a97ce4c36c2a9d23
     Pseudo is Projector augmented-wave + core cor, Zval = 11.0
     Generated using &quot;atomic&quot; code by A. Dal Corso  v.6.3
     Shape of augmentation charge: PSQ
     Using radial grid of 1279 points,  6 beta functions with:
                l(1) =   0
                l(2) =   0
                l(3) =   1
                l(4) =   1
                l(5) =   2
                l(6) =   2
     Q(r) pseudized with 0 coefficients

     atomic species   valence    mass     pseudopotential
        Au            11.00   196.96657     Au( 1.00)

     No symmetry found

   Cartesian axes

     site n.     atom                  positions (alat units)
         1           Au  tau(   1) = (   0.5000000   0.3535534   0.0000000  )
         2           Au  tau(   2) = (   0.5000000   1.0606602   0.0000000  )
         3           Au  tau(   3) = (   0.0000000   0.0000000   0.3535534  )
         4           Au  tau(   4) = (   0.0000000   0.7071068   0.3535534  )
         5           Au  tau(   5) = (   0.5000000   0.3535534   0.7071068  )
         6           Au  tau(   6) = (   0.5000000   1.0606602   0.7071068  )
         7           Au  tau(   7) = (   0.0000000   0.0000000   1.0606602  )
         8           Au  tau(   8) = (   0.0000000   0.7071068   1.0606602  )
         9           Au  tau(   9) = (   0.5000000   0.3535534   1.4142136  )
        10           Au  tau(  10) = (   0.5000000   1.0606602   1.4142136  )
        11           Au  tau(  11) = (   0.0000000   0.0000000   1.7677670  )
        12           Au  tau(  12) = (   0.0000000   0.7071068   1.7677670  )
        13           Au  tau(  13) = (   0.5000000   0.3535534   2.1213203  )
        14           Au  tau(  14) = (   0.5000000   1.0606602   2.1213203  )
        15           Au  tau(  15) = (   0.0000000   0.0000000   2.4748737  )
        16           Au  tau(  16) = (   0.0000000   0.7071068   2.4748737  )
        17           Au  tau(  17) = (   1.0000000   0.3535534   2.8284271  )
        18           Au  tau(  18) = (   1.0000000   1.0606602   2.8284271  )
        19           Au  tau(  19) = (   0.5000000   0.0000000   3.1819805  )
        20           Au  tau(  20) = (   0.5000000   0.7071068   3.1819805  )
        21           Au  tau(  21) = (   1.0000000   0.3535534   3.5355339  )
        22           Au  tau(  22) = (   1.0000000   1.0606602   3.5355339  )
        23           Au  tau(  23) = (   0.5000000   0.0000000   3.8890873  )
        24           Au  tau(  24) = (   0.5000000   0.7071068   3.8890873  )
        25           Au  tau(  25) = (   1.0000000   0.3535534   4.2426407  )
        26           Au  tau(  26) = (   1.0000000   1.0606602   4.2426407  )
        27           Au  tau(  27) = (   0.5000000   0.0000000   4.5961941  )
        28           Au  tau(  28) = (   0.5000000   0.7071068   4.5961941  )

     number of k points=    50  Gaussian smearing, width (Ry)=  0.2000
                       cart. coord. in units 2pi/alat
        k(    1) = (   0.0000000   0.0000000   0.0000000), wk =   0.0208333
        k(    2) = (   0.0000000   0.0589256   0.0000000), wk =   0.0416667
        k(    3) = (   0.0000000   0.1178511   0.0000000), wk =   0.0416667
        k(    4) = (   0.0000000   0.1767767   0.0000000), wk =   0.0416667
        k(    5) = (   0.0000000   0.2357023   0.0000000), wk =   0.0416667
        k(    6) = (   0.0000000   0.2946278   0.0000000), wk =   0.0416667
        k(    7) = (   0.0000000  -0.3535534   0.0000000), wk =   0.0208333
        k(    8) = (   0.1250000   0.0000000   0.0000000), wk =   0.0416667
        k(    9) = (   0.1250000   0.0589256   0.0000000), wk =   0.0416667
        k(   10) = (   0.1250000   0.1178511   0.0000000), wk =   0.0416667
        k(   11) = (   0.1250000   0.1767767   0.0000000), wk =   0.0416667
        k(   12) = (   0.1250000   0.2357023   0.0000000), wk =   0.0416667
        k(   13) = (   0.1250000   0.2946278   0.0000000), wk =   0.0416667
        k(   14) = (   0.1250000  -0.3535534   0.0000000), wk =   0.0416667
        k(   15) = (   0.1250000  -0.2946278   0.0000000), wk =   0.0416667
        k(   16) = (   0.1250000  -0.2357023   0.0000000), wk =   0.0416667
        k(   17) = (   0.1250000  -0.1767767   0.0000000), wk =   0.0416667
        k(   18) = (   0.1250000  -0.1178511   0.0000000), wk =   0.0416667
        k(   19) = (   0.1250000  -0.0589256   0.0000000), wk =   0.0416667
        k(   20) = (   0.2500000   0.0000000   0.0000000), wk =   0.0416667
        k(   21) = (   0.2500000   0.0589256   0.0000000), wk =   0.0416667
        k(   22) = (   0.2500000   0.1178511   0.0000000), wk =   0.0416667
        k(   23) = (   0.2500000   0.1767767   0.0000000), wk =   0.0416667
        k(   24) = (   0.2500000   0.2357023   0.0000000), wk =   0.0416667
        k(   25) = (   0.2500000   0.2946278   0.0000000), wk =   0.0416667
        k(   26) = (   0.2500000  -0.3535534   0.0000000), wk =   0.0416667
        k(   27) = (   0.2500000  -0.2946278   0.0000000), wk =   0.0416667
        k(   28) = (   0.2500000  -0.2357023   0.0000000), wk =   0.0416667
        k(   29) = (   0.2500000  -0.1767767   0.0000000), wk =   0.0416667
        k(   30) = (   0.2500000  -0.1178511   0.0000000), wk =   0.0416667
        k(   31) = (   0.2500000  -0.0589256   0.0000000), wk =   0.0416667
        k(   32) = (   0.3750000   0.0000000   0.0000000), wk =   0.0416667
        k(   33) = (   0.3750000   0.0589256   0.0000000), wk =   0.0416667
        k(   34) = (   0.3750000   0.1178511   0.0000000), wk =   0.0416667
        k(   35) = (   0.3750000   0.1767767   0.0000000), wk =   0.0416667
        k(   36) = (   0.3750000   0.2357023   0.0000000), wk =   0.0416667
        k(   37) = (   0.3750000   0.2946278   0.0000000), wk =   0.0416667
        k(   38) = (   0.3750000  -0.3535534   0.0000000), wk =   0.0416667
        k(   39) = (   0.3750000  -0.2946278   0.0000000), wk =   0.0416667
        k(   40) = (   0.3750000  -0.2357023   0.0000000), wk =   0.0416667
        k(   41) = (   0.3750000  -0.1767767   0.0000000), wk =   0.0416667
        k(   42) = (   0.3750000  -0.1178511   0.0000000), wk =   0.0416667
        k(   43) = (   0.3750000  -0.0589256   0.0000000), wk =   0.0416667
        k(   44) = (  -0.5000000   0.0000000   0.0000000), wk =   0.0208333
        k(   45) = (  -0.5000000   0.0589256   0.0000000), wk =   0.0416667
        k(   46) = (  -0.5000000   0.1178511   0.0000000), wk =   0.0416667
        k(   47) = (  -0.5000000   0.1767767   0.0000000), wk =   0.0416667
        k(   48) = (  -0.5000000   0.2357023   0.0000000), wk =   0.0416667
        k(   49) = (  -0.5000000   0.2946278   0.0000000), wk =   0.0416667
        k(   50) = (  -0.5000000  -0.3535534   0.0000000), wk =   0.0208333

     Initial potential from superposition of free atoms

     starting charge     307.9969, renormalised to     308.0000
     Starting wfcs are  252 randomized atomic wfcs
     Checking if some PAW data can be deallocated...

     Self-consistent Calculation

     iteration #  1     ecut=    50.00 Ry     beta= 0.10
     Davidson diagonalization with overlap
     ethr =  1.00E-02,  avg # of iterations =  5.1

     total energy              =  -21685.57957482 Ry
     estimated scf accuracy    <      15.38533300 Ry

[...]

     negative rho (up, down):  7.389E-03 0.000E+00

[...]

     iteration #  7     ecut=    50.00 Ry     beta= 0.10
     Davidson diagonalization with overlap
     c_bands:  1 eigenvalues not converged
     c_bands:  4 eigenvalues not converged
     ethr =  1.24E-04,  avg # of iterations =  9.4

[...]

     End of self-consistent calculation

          k = 0.0000 0.0000 0.0000 ( 17807 PWs)   bands (ev):

   -10.2999 -10.2680 -10.2392   0.9417   0.9557   1.0800   1.0801   1.1385
     1.1386   4.3020   4.3021   4.5484   4.5757   4.5758   4.8624   4.8626
     7.3210   7.7321   8.1628   8.4879   9.1286   9.5315   9.5326   9.5379
     9.7526   9.7527   9.8453   9.8642  10.1974  10.5972  10.8273  10.9491
    10.9827  11.0085  11.0570  11.0843  11.0868  11.0884  11.1369  11.2637
    11.3213  11.3902  11.3959  11.4522  11.5328  11.5895  11.6082  11.6257
    11.6270  11.7548  11.7647  11.7834  11.7894  11.8452  11.8778  11.9298
    12.0659  12.1188  12.1578  12.1703  12.3073  12.3576  12.3584  12.4941
    12.5163  12.5452  12.5506  12.6847  12.7442  12.7957  12.8236  12.9136
    12.9766  13.0271  13.0468  13.0690  13.0758  13.1079  13.1180  13.1597
    13.2256  13.2681  13.2875  13.3935  13.4152  13.5232  13.5725  13.6194
    13.7245  13.7737  13.8638  13.9195  13.9680  13.9709  13.9830  14.1568
    14.1732  14.2037  14.2492  14.2862  14.3976  14.4284  14.4390  14.5761
    14.5979  14.6154  14.6468  14.6629  14.6755  14.6876  14.7146  14.7724
    14.9088  14.9687  14.9699  15.0747  15.1065  15.1170  15.1436  15.2318
    15.2798  15.3529  15.3683  15.4032  15.4213  15.5085  15.5830  15.5838
    15.5860  15.6545  15.6786  15.6995  15.7644  15.7961  15.8561  15.9421
[...]
     atom    6 type  1   force =    -0.00000005   -0.00000023    0.05846712
     atom    7 type  1   force =    -0.00000002   -0.00000026    0.00734626
     atom    8 type  1   force =     0.00000014   -0.00000002    0.00734673
     atom    9 type  1   force =     0.00000009   -0.00000028    0.00044784
     atom   10 type  1   force =     0.00000005    0.00000002    0.00044774
     atom   11 type  1   force =     0.00000010   -0.00000012   -0.00355667
     atom   12 type  1   force =     0.00000034   -0.00000002   -0.00355725
     atom   13 type  1   force =     0.00000031    0.00000016   -0.00137575
     atom   14 type  1   force =    -0.00000001   -0.00000015   -0.00137472
     atom   15 type  1   force =     0.00000001    0.00000004   -1.15170720
     atom   16 type  1   force =     0.00000007   -0.00000007   -1.15170842
     atom   17 type  1   force =     0.00000008   -0.00000064    1.15125103
     atom   18 type  1   force =    -0.00000003    0.00000024    1.15125133
     atom   19 type  1   force =     0.00000003    0.00000024   -0.00124893
     atom   20 type  1   force =    -0.00000004   -0.00000017   -0.00124892
     atom   21 type  1   force =     0.00000011   -0.00000026   -0.00375105
     atom   22 type  1   force =    -0.00000002   -0.00000006   -0.00375092
     atom   23 type  1   force =    -0.00000003   -0.00000003   -0.05639773
     atom   24 type  1   force =    -0.00000003    0.00000005   -0.05639804
     atom   25 type  1   force =    -0.00000039    0.00000020   -0.24196235
     atom   26 type  1   force =     0.00000043   -0.00000014   -0.24196246
     atom   27 type  1   force =     0.00000010    0.00000066   -0.04468204
     atom   28 type  1   force =     0.00000021   -0.00000053   -0.04468285

     Total force =     2.357871     Total SCF correction =     0.001120

     BFGS Geometry Optimization
     Energy error            =      0.0E+00 Ry
     Gradient error          =      1.2E+00 Ry/Bohr

     number of scf cycles    =   1
     number of bfgs steps    =   0

     energy             new  =  -21687.5672142495 Ry

     new trust radius        =       0.5000000000 bohr
     new conv_thr            =       0.0000010000 Ry

ATOMIC_POSITIONS (angstrom)
Au            2.0400000000        1.4424978336        0.0102978216    0   0   1
Au            2.0400000000        4.3274935009        0.0102977617    0   0   1
Au            0.0000000000        0.0000000000        1.4981733287    0   0   1
Au            0.0000000000        2.8849956672        1.4981733760    0   0   1
Au            2.0400000000        1.4424978336        2.8984275006    0   0   1
Au            2.0400000000        4.3274935009        2.8984276546    0   0   1
Au            0.0000000000        0.0000000000        4.3291812006    0   0   1
Au            0.0000000000        2.8849956672        4.3291813083    0   0   1
Au            2.0400000000        1.4424978336        5.7700942194    0   0   1
Au            2.0400000000        4.3274935009        5.7700941958    0   0   1
Au            0.0000000000        0.0000000000        7.2116720744    0   0   1
Au            0.0000000000        2.8849956672        7.2116719403    0   0   1
Au            2.0400000000        1.4424978336        8.6546709426    0   0   1
Au            2.0400000000        4.3274935009        8.6546711783    0   0   1
Au            0.0000000000        0.0000000000        9.8328965094    0   0   1
Au            0.0000000000        2.8849956672        9.8328962298    0   0   1
Au            4.0800000000        1.4424978336       11.8044661958    0   0   1
Au            4.0800000000        4.3274935009       11.8044662650    0   0   1
Au            2.0400000000        0.0000000000       12.9821935791    0   0   1
Au            2.0400000000        2.8849956672       12.9821935810    0   0   1
Au            4.0800000000        1.4424978336       14.4241165851    0   0   1
Au            4.0800000000        4.3274935009       14.4241166161    0   0   1
Au            2.0400000000        0.0000000000       15.8545195950    0   0   1
Au            2.0400000000        2.8849956672       15.8545195231    0   0   1
Au            4.0800000000        1.4424978336       17.2543865999    0   0   1
Au            4.0800000000        4.3274935009       17.2543865738    0   0   1
Au            2.0400000000        0.0000000000       18.7422067749    0   0   1
Au            2.0400000000        2.8849956672       18.7422065879    0   0   1

     Writing config-only to output data dir ./pwscf.save/
     NEW-OLD atomic charge density approx. for the potential

[...]

     Total force =     0.695523     Total SCF correction =     0.002435
     Energy error            =      1.2E+00 Ry
     Gradient error          =      2.5E-01 Ry/Bohr

[...]

     energy             old  =  -21687.5672142495 Ry
     energy             new  =  -21688.7559664564 Ry

     CASE: energy            _new < energy            _old

[...]

     WARNING: bfgs curvature condition failed, Theta= 0.131
     new trust radius        =       0.3161710408 bohr
     new conv_thr            =       0.0000010000 Ry

[...]

     negative rho (up, down):  6.226E-04 0.000E+00

[...]

     WARNING: bfgs curvature condition failed, Theta= 0.235
     new trust radius        =       0.4742565613 bohr
     new conv_thr            =       0.0000010000 Ry

[...]

     iteration #  2     ecut=    50.00 Ry     beta= 0.10
     Davidson diagonalization with overlap
     c_bands:  1 eigenvalues not converged
     c_bands:  1 eigenvalues not converged
     ethr =  8.39E-07,  avg # of iterations =  4.5

[...]

     Threshold (ethr) on eigenvalues was too large:
     Diagonalizing with lowered threshold

     Davidson diagonalization with overlap
     ethr =  3.51E-08,  avg # of iterations =  4.3

[...]

     number of scf cycles    =  21
     number of bfgs steps    =  20

     energy             old  =  -21704.1266509355 Ry
     energy             new  =  -21704.1266661430 Ry

     CASE: energy            _new < energy            _old

     new trust radius        =       0.0027921903 bohr
     new conv_thr            =       0.0000000100 Ry

ATOMIC_POSITIONS (angstrom)
Au            2.0400000000        1.4424978336        1.0142401659    0   0   1
Au            2.0400000000        4.3274935009        1.0142401286    0   0   1
Au            0.0000000000        0.0000000000        1.9132200492    0   0   1
Au            0.0000000000        2.8849956672        1.9132198608    0   0   1
Au            2.0400000000        1.4424978336        3.5262468023    0   0   1
Au            2.0400000000        4.3274935009        3.5262469792    0   0   1
Au            0.0000000000        0.0000000000        4.6030782487    0   0   1
Au            0.0000000000        2.8849956672        4.6030777185    0   0   1
Au            2.0400000000        1.4424978336        6.1123222598    0   0   1
Au            2.0400000000        4.3274935009        6.1123225471    0   0   1
Au            0.0000000000        0.0000000000        7.1891987845    0   0   1
Au            0.0000000000        2.8849956672        7.1891985222    0   0   1
Au            2.0400000000        1.4424978336        8.8017392250    0   0   1
Au            2.0400000000        4.3274935009        8.8017389389    0   0   1
Au            0.0000000000        0.0000000000        9.7022534534    0   0   1
Au            0.0000000000        2.8849956672        9.7022534025    0   0   1
Au            4.0800000000        1.4424978336       11.7659156568    0   0   1
Au            4.0800000000        4.3274935009       11.7659154440    0   0   1
Au            2.0400000000        0.0000000000       12.5306631575    0   0   1
Au            2.0400000000        2.8849956672       12.5306632215    0   0   1
Au            4.0800000000        1.4424978336       14.2890043313    0   0   1
Au            4.0800000000        4.3274935009       14.2890042879    0   0   1
Au            2.0400000000        0.0000000000       15.1797753825    0   0   1
Au            2.0400000000        2.8849956672       15.1797755581    0   0   1
Au            4.0800000000        1.4424978336       16.9372009296    0   0   1
Au            4.0800000000        4.3274935009       16.9372007713    0   0   1
Au            2.0400000000        0.0000000000       17.7024449320    0   0   1
Au            2.0400000000        2.8849956672       17.7024449594    0   0   1

     Writing config-only to output data dir ./pwscf.save/
     NEW-OLD atomic charge density approx. for the potential

     Self-consistent Calculation

[...]

     Threshold (ethr) on eigenvalues was too large:
     Diagonalizing with lowered threshold

     Davidson diagonalization with overlap
     ethr =  8.38E-09,  avg # of iterations =  4.6

[...]

     total energy              =  -21704.12667661 Ry
     estimated scf accuracy    <       0.00000007 Ry

     iteration #  9     ecut=    50.00 Ry     beta= 0.10
     Davidson diagonalization with overlap
     ethr =  2.29E-11,  avg # of iterations =  2.0

     End of self-consistent calculation

[...]

          k = 0.3750-0.0589 0.0000 ( 17796 PWs)   bands (ev):

[...]

          k =-0.5000-0.3536 0.0000 ( 17712 PWs)   bands (ev):

     9.4475   9.4475   9.4486   9.4486   9.7506   9.7506   9.7509   9.7509
    10.1723  10.1723  10.1728  10.1728  10.3485  10.3485  10.3493  10.3493
    10.4584  10.4584  10.4597  10.4597  10.6387  10.6387  10.6393  10.6393
    10.8553  10.8553  10.8557  10.8557  11.1664  11.1664  11.1667  11.1667
    11.2249  11.2249  11.2258  11.2258  11.3787  11.3787  11.3794  11.3794
    11.4528  11.4528  11.4531  11.4531  11.6626  11.6626  11.6627  11.6627
    11.6951  11.6951  11.6953  11.6953  11.7720  11.7720  11.7721  11.7721
    11.9136  11.9136  11.9139  11.9139  12.0404  12.0404  12.0404  12.0404
    12.1514  12.1514  12.1517  12.1517  12.2755  12.2755  12.2755  12.2755
    12.3143  12.3143  12.3146  12.3146  12.5505  12.5505  12.5507  12.5507
    12.8192  12.8192  12.8198  12.8198  12.9217  12.9217  12.9223  12.9223
    13.4067  13.4067  13.4071  13.4071  13.5511  13.5511  13.5512  13.5512
    13.5819  13.5819  13.5823  13.5823  13.6208  13.6208  13.6211  13.6211
    13.9025  13.9025  13.9027  13.9027  14.0020  14.0020  14.0020  14.0020
    14.2217  14.2217  14.2221  14.2221  14.2841  14.2841  14.2844  14.2844
    14.6357  14.6357  14.6360  14.6360  14.7869  14.7869  14.7876  14.7876
    14.9256  14.9256  14.9256  14.9256  15.3970  15.3970  15.3974  15.3974
    15.6401  15.6401  15.6408  15.6408  16.0290  16.0290  16.0293  16.0293
    16.0710  16.0710  16.0710  16.0710  16.5962  16.5962  16.5963  16.5963
    17.1448  17.1448  17.1450  17.1450  17.5746  17.5746  17.5748  17.5748
    19.2456  19.2456  19.2460  19.2460  19.5577  19.5577  19.5578  19.5578
    22.0418  22.0418  22.0422  22.0422  24.1241  24.1241  24.1246  24.1246
    25.5380  25.5380  25.5380  25.5380  26.0443  26.0443  26.0445  26.0445
    26.3431

     the Fermi energy is    18.2800 ev

!    total energy              =  -21704.12667658 Ry

     total all-electron energy =  -1064671.817226 Ry
     estimated scf accuracy    <          4.6E-09 Ry
     smearing contrib. (-TS)   =      -3.22861238 Ry
     internal energy E=F+TS    =  -21700.89806420 Ry

     The total energy is F=E-TS. E is the sum of the following terms:
     one-electron contribution =     406.34834176 Ry
     hartree contribution      =     220.38471973 Ry
     xc contribution           =    -901.72259296 Ry
     ewald contribution        =   -2034.34480975 Ry
     one-center paw contrib.   =  -19391.56372298 Ry

     convergence has been achieved in   9 iterations

     Forces acting on atoms (cartesian axes, Ry/au):

     atom    1 type  1   force =    -0.00000004   -0.00000007   -0.00048131
     atom    2 type  1   force =     0.00000001   -0.00000005   -0.00048120
     atom    3 type  1   force =    -0.00000001    0.00000009    0.00040008
     atom    4 type  1   force =     0.00000002   -0.00000010    0.00039999
     atom    5 type  1   force =    -0.00000004   -0.00000003    0.00076787
     atom    6 type  1   force =     0.00000002   -0.00000000    0.00076776
     atom    7 type  1   force =     0.00000001   -0.00000001   -0.00093405
     atom    8 type  1   force =     0.00000000    0.00000003   -0.00093380
     atom    9 type  1   force =     0.00000004    0.00000004    0.00080414
     atom   10 type  1   force =     0.00000002   -0.00000003    0.00080428
     atom   11 type  1   force =     0.00000002    0.00000012   -0.00032274
     atom   12 type  1   force =    -0.00000008   -0.00000010   -0.00032271
     atom   13 type  1   force =     0.00000000    0.00000000   -0.00017502
     atom   14 type  1   force =     0.00000001   -0.00000001   -0.00017494
     atom   15 type  1   force =    -0.00000005    0.00000017   -0.00049246
     atom   16 type  1   force =     0.00000000   -0.00000016   -0.00049267
     atom   17 type  1   force =     0.00000000    0.00000005   -0.00032020
     atom   18 type  1   force =    -0.00000001   -0.00000009   -0.00032030
     atom   19 type  1   force =     0.00000001    0.00000000    0.00013730
     atom   20 type  1   force =    -0.00000002    0.00000004    0.00013737
     atom   21 type  1   force =     0.00000000    0.00000004   -0.00033675
     atom   22 type  1   force =     0.00000001   -0.00000003   -0.00033689
     atom   23 type  1   force =    -0.00000001   -0.00000002   -0.00010178
     atom   24 type  1   force =     0.00000005    0.00000008   -0.00010199
     atom   25 type  1   force =    -0.00000001    0.00000002    0.00014096
     atom   26 type  1   force =     0.00000011   -0.00000002    0.00014088
     atom   27 type  1   force =     0.00000001    0.00000007    0.00091395
     atom   28 type  1   force =    -0.00000008   -0.00000000    0.00091424

     Total force =     0.002821     Total SCF correction =     0.000220
     Energy error            =      1.0E-05 Ry
     Gradient error          =      9.3E-04 Ry/Bohr

     bfgs converged in  22 scf cycles and  21 bfgs steps
     (criteria: energy <  1.0E-04 Ry, force <  1.0E-03 Ry/Bohr)

     End of BFGS Geometry Optimization

     Final energy             =  -21704.1266765838 Ry

     File ./pwscf.bfgs deleted, as requested
Begin final coordinates

ATOMIC_POSITIONS (angstrom)
Au            2.0400000000        1.4424978336        1.0142401659    0   0   1
Au            2.0400000000        4.3274935009        1.0142401286    0   0   1
Au            0.0000000000        0.0000000000        1.9132200492    0   0   1
Au            0.0000000000        2.8849956672        1.9132198608    0   0   1
Au            2.0400000000        1.4424978336        3.5262468023    0   0   1
Au            2.0400000000        4.3274935009        3.5262469792    0   0   1
Au            0.0000000000        0.0000000000        4.6030782487    0   0   1
Au            0.0000000000        2.8849956672        4.6030777185    0   0   1
Au            2.0400000000        1.4424978336        6.1123222598    0   0   1
Au            2.0400000000        4.3274935009        6.1123225471    0   0   1
Au            0.0000000000        0.0000000000        7.1891987845    0   0   1
Au            0.0000000000        2.8849956672        7.1891985222    0   0   1
Au            2.0400000000        1.4424978336        8.8017392250    0   0   1
Au            2.0400000000        4.3274935009        8.8017389389    0   0   1
Au            0.0000000000        0.0000000000        9.7022534534    0   0   1
Au            0.0000000000        2.8849956672        9.7022534025    0   0   1
Au            4.0800000000        1.4424978336       11.7659156568    0   0   1
Au            4.0800000000        4.3274935009       11.7659154440    0   0   1
Au            2.0400000000        0.0000000000       12.5306631575    0   0   1
Au            2.0400000000        2.8849956672       12.5306632215    0   0   1
Au            4.0800000000        1.4424978336       14.2890043313    0   0   1
Au            4.0800000000        4.3274935009       14.2890042879    0   0   1
Au            2.0400000000        0.0000000000       15.1797753825    0   0   1
Au            2.0400000000        2.8849956672       15.1797755581    0   0   1
Au            4.0800000000        1.4424978336       16.9372009296    0   0   1
Au            4.0800000000        4.3274935009       16.9372007713    0   0   1
Au            2.0400000000        0.0000000000       17.7024449320    0   0   1
Au            2.0400000000        2.8849956672       17.7024449594    0   0   1
End final coordinates

     Writing all to output data dir ./pwscf.save/

     General routines

     Parallel routines

   This run was terminated on:  20:56: 5  20Mar2024

   JOB DONE.