     Program PWSCF v.7.0 starts on  2Mar2024 at 10: 6:32

     R & G space division:  proc/nbgrp/npool/nimage =      10

     Reading input from GSF110_0.45.in
Warning: card &CELL ignored
Warning: card / ignored

     Current dimensions of program PWSCF are:
     Max number of different atomic species (ntypx) = 10
     Max number of k-points (npk) =  40000
     Max angular momentum in pseudopotentials (lmaxx) =  4

     File ./pwscf.bfgs deleted, as requested
     file Au.pbe-n-kjpaw_psl.1.0.0.UPF: wavefunction(s)  6S 5D renormalized
     Found identity + (  0.0000 -0.5000  0.0000) symmetry
     This is a supercell, fractional translations are disabled
     Message from routine setup:
     using ibrav=0 with symmetry is DISCOURAGED, use correct ibrav instead

     Using Slab Decomposition

     bravais-lattice index     =            0
     lattice parameter (alat)  =       7.7101  a.u.
     unit-cell volume          =    2979.1368 (a.u.)^3
     number of atoms/cell      =           28
     number of atomic types    =            1
     number of electrons       =       308.00
     number of Kohn-Sham states=          185
     kinetic-energy cutoff     =      50.0000  Ry
     charge density cutoff     =     200.0000  Ry
     scf convergence threshold =      1.0E-06
     mixing beta               =       0.1000
     number of iterations used =            8  plain     mixing
     Exchange-correlation= SLA  PW   PBX  PBC
                           (   1   4   3   4   0   0   0)

     celldm(1)=   7.710083  celldm(2)=   0.000000  celldm(3)=   0.000000
     celldm(4)=   0.000000  celldm(5)=   0.000000  celldm(6)=   0.000000

     crystal axes: (cart. coord. in units of alat)
               a(1) = (   1.000000   0.000000   0.000000 )
               a(2) = (   0.000000   1.414214   0.000000 )
               a(3) = (   0.000000   0.000000   4.596194 )

     reciprocal axes: (cart. coord. in units 2 pi/alat)
               b(1) = (  1.000000  0.000000  0.000000 )
               b(2) = (  0.000000  0.707107  0.000000 )
               b(3) = (  0.000000  0.000000  0.217571 )

     PseudoPot. # 1 for Au read from file:
     ./Au.pbe-n-kjpaw_psl.1.0.0.UPF
     MD5 check sum: 4db85c736373c707a97ce4c36c2a9d23
     Pseudo is Projector augmented-wave + core cor, Zval = 11.0
     Generated using &quot;atomic&quot; code by A. Dal Corso  v.6.3
     Shape of augmentation charge: PSQ
     Using radial grid of 1279 points,  6 beta functions with:
                l(1) =   0
                l(2) =   0
                l(3) =   1
                l(4) =   1
                l(5) =   2
                l(6) =   2
     Q(r) pseudized with 0 coefficients

     atomic species   valence    mass     pseudopotential
        Au            11.00   196.96657     Au( 1.00)

      2 Sym. Ops. (no inversion) found

   Cartesian axes

     site n.     atom                  positions (alat units)
         1           Au  tau(   1) = (   0.5000000   0.3535534   0.0000000  )
         2           Au  tau(   2) = (   0.5000000   1.0606602   0.0000000  )
         3           Au  tau(   3) = (   0.0000000   0.0000000   0.3535534  )
         4           Au  tau(   4) = (   0.0000000   0.7071068   0.3535534  )
         5           Au  tau(   5) = (   0.5000000   0.3535534   0.7071068  )
         6           Au  tau(   6) = (   0.5000000   1.0606602   0.7071068  )
         7           Au  tau(   7) = (   0.0000000   0.0000000   1.0606602  )
         8           Au  tau(   8) = (   0.0000000   0.7071068   1.0606602  )
         9           Au  tau(   9) = (   0.5000000   0.3535534   1.4142136  )
        10           Au  tau(  10) = (   0.5000000   1.0606602   1.4142136  )
        11           Au  tau(  11) = (   0.0000000   0.0000000   1.7677670  )
        12           Au  tau(  12) = (   0.0000000   0.7071068   1.7677670  )
        13           Au  tau(  13) = (   0.5000000   0.3535534   2.1213203  )
        14           Au  tau(  14) = (   0.5000000   1.0606602   2.1213203  )
        15           Au  tau(  15) = (   0.0000000   0.0000000   2.4748737  )
        16           Au  tau(  16) = (   0.0000000   0.7071068   2.4748737  )
        17           Au  tau(  17) = (   0.9500000   0.3535534   2.8284271  )
        18           Au  tau(  18) = (   0.9500000   1.0606602   2.8284271  )
        19           Au  tau(  19) = (   0.4500000   0.0000000   3.1819805  )
        20           Au  tau(  20) = (   0.4500000   0.7071068   3.1819805  )
        21           Au  tau(  21) = (   0.9500000   0.3535534   3.5355339  )
        22           Au  tau(  22) = (   0.9500000   1.0606602   3.5355339  )
        23           Au  tau(  23) = (   0.4500000   0.0000000   3.8890873  )
        24           Au  tau(  24) = (   0.4500000   0.7071068   3.8890873  )
        25           Au  tau(  25) = (   0.9500000   0.3535534   4.2426407  )
        26           Au  tau(  26) = (   0.9500000   1.0606602   4.2426407  )
        27           Au  tau(  27) = (   0.4500000   0.0000000   4.5961941  )
        28           Au  tau(  28) = (   0.4500000   0.7071068   4.5961941  )

     number of k points=    35  Gaussian smearing, width (Ry)=  0.0200
                       cart. coord. in units 2pi/alat
        k(    1) = (   0.0000000   0.0000000   0.0000000), wk =   0.0208333
        k(    2) = (   0.0000000   0.0589256   0.0000000), wk =   0.0416667
        k(    3) = (   0.0000000   0.1178511   0.0000000), wk =   0.0416667
        k(    4) = (   0.0000000   0.1767767   0.0000000), wk =   0.0416667
        k(    5) = (   0.0000000   0.2357023   0.0000000), wk =   0.0416667
        k(    6) = (   0.0000000   0.2946278   0.0000000), wk =   0.0416667
        k(    7) = (   0.0000000  -0.3535534   0.0000000), wk =   0.0208333
        k(    8) = (   0.1250000   0.0000000   0.0000000), wk =   0.0416667
        k(    9) = (   0.1250000   0.0589256   0.0000000), wk =   0.0833333
        k(   10) = (   0.1250000   0.1178511   0.0000000), wk =   0.0833333
        k(   11) = (   0.1250000   0.1767767   0.0000000), wk =   0.0833333
        k(   12) = (   0.1250000   0.2357023   0.0000000), wk =   0.0833333
        k(   13) = (   0.1250000   0.2946278   0.0000000), wk =   0.0833333
        k(   14) = (   0.1250000  -0.3535534   0.0000000), wk =   0.0416667
        k(   15) = (   0.2500000   0.0000000   0.0000000), wk =   0.0416667
        k(   16) = (   0.2500000   0.0589256   0.0000000), wk =   0.0833333
        k(   17) = (   0.2500000   0.1178511   0.0000000), wk =   0.0833333
        k(   18) = (   0.2500000   0.1767767   0.0000000), wk =   0.0833333
        k(   19) = (   0.2500000   0.2357023   0.0000000), wk =   0.0833333
        k(   20) = (   0.2500000   0.2946278   0.0000000), wk =   0.0833333
        k(   21) = (   0.2500000  -0.3535534   0.0000000), wk =   0.0416667
        k(   22) = (   0.3750000   0.0000000   0.0000000), wk =   0.0416667
        k(   23) = (   0.3750000   0.0589256   0.0000000), wk =   0.0833333
        k(   24) = (   0.3750000   0.1178511   0.0000000), wk =   0.0833333
        k(   25) = (   0.3750000   0.1767767   0.0000000), wk =   0.0833333
        k(   26) = (   0.3750000   0.2357023   0.0000000), wk =   0.0833333
        k(   27) = (   0.3750000   0.2946278   0.0000000), wk =   0.0833333
        k(   28) = (   0.3750000  -0.3535534   0.0000000), wk =   0.0416667
        k(   29) = (  -0.5000000   0.0000000   0.0000000), wk =   0.0208333
        k(   30) = (  -0.5000000   0.0589256   0.0000000), wk =   0.0416667
        k(   31) = (  -0.5000000   0.1178511   0.0000000), wk =   0.0416667
        k(   32) = (  -0.5000000   0.1767767   0.0000000), wk =   0.0416667
        k(   33) = (  -0.5000000   0.2357023   0.0000000), wk =   0.0416667
        k(   34) = (  -0.5000000   0.2946278   0.0000000), wk =   0.0416667
        k(   35) = (  -0.5000000  -0.3535534   0.0000000), wk =   0.0208333

     Initial potential from superposition of free atoms

     starting charge     307.9969, renormalised to     308.0000
     Starting wfcs are  252 randomized atomic wfcs
     Checking if some PAW data can be deallocated...

     Self-consistent Calculation

     iteration #  1     ecut=    50.00 Ry     beta= 0.10
     Davidson diagonalization with overlap
     ethr =  1.00E-02,  avg # of iterations =  4.8

     total energy              =  -21684.45003346 Ry
     estimated scf accuracy    <      18.50995206 Ry

[...]

     negative rho (up, down):  2.933E-03 0.000E+00

[...]

     iteration #  7     ecut=    50.00 Ry     beta= 0.10
     Davidson diagonalization with overlap
     c_bands:  4 eigenvalues not converged
     ethr =  1.35E-04,  avg # of iterations =  8.8

[...]

     iteration # 12     ecut=    50.00 Ry     beta= 0.10
     Davidson diagonalization with overlap
     c_bands:  1 eigenvalues not converged
     c_bands:  1 eigenvalues not converged
     ethr =  1.32E-06,  avg # of iterations =  8.0

[...]

     total energy              =  -21686.95171489 Ry
     estimated scf accuracy    <       0.00000199 Ry

     iteration # 22     ecut=    50.00 Ry     beta= 0.10
     Davidson diagonalization with overlap
     ethr =  6.45E-10,  avg # of iterations =  3.4

[...]

     End of self-consistent calculation

          k = 0.0000 0.0000 0.0000 ( 17807 PWs)   bands (ev):

   -10.2234  -9.4927  -9.3864  -4.1158  -4.1154  -0.4318  -0.4308   0.5434
     0.6184   3.9484   4.1947   4.1976   5.1218   5.1239   7.0995   7.1011
     7.8308   7.9227   8.0819   8.1780   8.6531   9.0435   9.2686   9.6353
     9.9761   9.9832  10.0121  10.2066  10.2067  10.4350  10.6634  10.6837
    10.6873  11.0111  11.0538  11.0607  11.1391  11.2574  11.2730  11.3134
    11.3807  11.4695  11.4958  11.5819  11.7133  11.7334  11.7613  11.7797
    11.8885  11.9034  11.9450  11.9742  12.0900  12.0976  12.1028  12.1434
    12.1925  12.2275  12.2725  12.3317  12.4180  12.5166  12.6283  12.6441
    12.6749  12.6788  12.7694  12.8184  12.8443  12.8948  12.9460  13.0451
    13.0472  13.0955  13.1891  13.2313  13.2344  13.2973  13.3649  13.4143
    13.4330  13.4378  13.5196  13.6031  13.6585  13.7086  13.7176  13.8019
    13.8223  13.8745  13.9441  14.0176  14.0938  14.1273  14.2103  14.3551
    14.3700  14.3963  14.4281  14.5098  14.5290  14.7131  14.7511  14.7540
    14.7938  14.8888  14.9098  14.9422  14.9450  14.9455  15.0176  15.0495
    15.0940  15.1974  15.2168  15.2264  15.2975  15.3544  15.4381  15.4593
    15.5132  15.5554  15.6702  15.6821  15.7022  15.8176  15.8332  15.8458
    15.8499  15.9225  15.9240  16.0670  16.0688  16.1490  16.2051  16.2539
    16.3007  16.3599  16.4043  16.5018  16.6292  16.8007  16.8125  17.2205
    17.4880  17.5084  17.6425  17.6465  17.7612  18.0145  18.0241  18.3362
    18.3586  18.3604  18.6652  18.6762  18.6895  18.7263  18.8775  19.0531
    19.1078  20.2774  20.3073  20.3102  20.3523  20.8141  21.6016  21.9566
    22.7712  23.2121  23.4675  23.7689  23.7758  23.8108  24.3532  24.4702
    24.4715  24.6304  25.0732  25.1387  25.5947  25.7900  25.8472  25.8936
    26.1402

[...]

          k = 0.3750-0.3536 0.0000 ( 17776 PWs)   bands (ev):

[...]

          k =-0.5000 0.0000 0.0000 ( 17814 PWs)   bands (ev):

[...]

          k =-0.5000-0.3536 0.0000 ( 17712 PWs)   bands (ev):

    -9.8523  -9.8523  -7.6014  -7.6014  -1.7964  -1.7964   1.5268   1.5268
     2.1434   2.1434   4.4882   4.4882   6.1605   6.1605   7.4884   7.4885
     8.3305   8.3305   9.0379   9.0379   9.2465   9.2465   9.4160   9.4160
     9.9439   9.9439  10.1333  10.1333  10.6003  10.6003  10.6833  10.6833
    11.3055  11.3055  11.3404  11.3404  11.3986  11.3986  11.6577  11.6577
    11.8213  11.8213  11.8943  11.8943  11.9582  11.9582  12.0943  12.0943
    12.2177  12.2177  12.2578  12.2578  12.4018  12.4018  12.4483  12.4483
    12.4551  12.4551  12.5027  12.5027  12.6264  12.6264  12.6875  12.6875
    12.7851  12.7851  13.0088  13.0088  13.0214  13.0214  13.0657  13.0657
    13.1089  13.1089  13.1440  13.1440  13.2209  13.2209  13.2660  13.2660
    13.3930  13.3930  13.4446  13.4446  13.5099  13.5099  13.5571  13.5571
    13.6895  13.6895  13.7501  13.7501  13.8013  13.8013  13.8384  13.8384
    13.9313  13.9313  14.0742  14.0742  14.0815  14.0815  14.1095  14.1095
    14.3261  14.3261  14.3728  14.3728  14.3976  14.3976  14.4322  14.4322
    14.5357  14.5357  14.6919  14.6919  14.7599  14.7599  14.8824  14.8824
    15.0194  15.0194  15.0834  15.0835  15.1654  15.1654  15.3654  15.3654
    15.4368  15.4368  15.7000  15.7000  15.7722  15.7722  15.8646  15.8646
    15.8829  15.8829  15.9357  15.9357  16.3104  16.3104  16.4042  16.4042
    16.4937  16.4937  16.7815  16.7815  17.0784  17.0784  17.6384  17.6384
    17.8014  17.8014  17.8839  17.8839  18.2465  18.2465  18.9992  18.9992
    19.6688  19.6688  19.8087  19.8087  19.8866  19.8866  20.0878  20.0878
    22.3322  22.3322  22.8246  22.8246  23.3781  23.3781  23.4728  23.4728
    24.1325  24.1325  25.3837  25.3837  26.1638  26.1640  26.2528  26.2535
    26.4102

     the Fermi energy is    18.4404 ev

!    total energy              =  -21686.95171510 Ry

     total all-electron energy =  -1064654.642264 Ry
     estimated scf accuracy    <       0.00000088 Ry
     smearing contrib. (-TS)   =      -0.02062564 Ry
     internal energy E=F+TS    =  -21686.93108946 Ry

     The total energy is F=E-TS. E is the sum of the following terms:
     one-electron contribution =      25.70353376 Ry
     hartree contribution      =     406.19132767 Ry
     xc contribution           =    -908.28572900 Ry
     ewald contribution        =   -1816.56174369 Ry
     one-center paw contrib.   =  -19393.97847820 Ry

     convergence has been achieved in  22 iterations

     negative rho (up, down):  9.460E-02 0.000E+00

     Forces acting on atoms (cartesian axes, Ry/au):

     atom    1 type  1   force =     1.54074652    0.00000989    0.08597093
     atom    2 type  1   force =     1.54074652   -0.00000989    0.08597093
     atom    3 type  1   force =    -0.14825265    0.00000000    0.28912395
     atom    4 type  1   force =    -0.14825161    0.00000000    0.28911945
     atom    5 type  1   force =     0.00834172   -0.00000203    0.05516208
     atom    6 type  1   force =     0.00834172    0.00000203    0.05516208
     atom    7 type  1   force =     0.00096603    0.00000000    0.01075494
     atom    8 type  1   force =     0.00096327    0.00000000    0.01075709
     atom    9 type  1   force =    -0.00020789    0.00000124    0.00178094
     atom   10 type  1   force =    -0.00020789   -0.00000124    0.00178094
     atom   11 type  1   force =    -0.00037054    0.00000000   -0.00312663
     atom   12 type  1   force =    -0.00037188    0.00000000   -0.00312444
     atom   13 type  1   force =    -0.00479716    0.00000138   -0.00572689
     atom   14 type  1   force =    -0.00479716   -0.00000138   -0.00572689
     atom   15 type  1   force =     0.16552700    0.00000000   -1.11672022
     atom   16 type  1   force =     0.16552874    0.00000000   -1.11671600
     atom   17 type  1   force =    -0.16452509    0.00000478    1.11620063
     atom   18 type  1   force =    -0.16452509   -0.00000478    1.11620063
     atom   19 type  1   force =     0.00498109    0.00000000    0.00189283
     atom   20 type  1   force =     0.00498217    0.00000000    0.00189152
     atom   21 type  1   force =    -0.00086097   -0.00000027   -0.00601201
     atom   22 type  1   force =    -0.00086097    0.00000027   -0.00601201
     atom   23 type  1   force =    -0.00835504    0.00000000   -0.05405609
     atom   24 type  1   force =    -0.00835351    0.00000000   -0.05405161
     atom   25 type  1   force =     0.14776999    0.00000392   -0.28974677
     atom   26 type  1   force =     0.14776999   -0.00000392   -0.28974677
     atom   27 type  1   force =    -1.54096199    0.00000000   -0.08550188
     atom   28 type  1   force =    -1.54096532    0.00000000   -0.08550076

     Total force =     3.880288     Total SCF correction =     0.002164

     Writing all to output data dir ./pwscf.save/

     General routines

     Parallel routines

   This run was terminated on:  10:22:20   2Mar2024

   JOB DONE.