     Program PWSCF v.7.0 starts on  8Mar2024 at  9:54:21

     R & G space division:  proc/nbgrp/npool/nimage =      10

     Reading input from GSF110R_0.1.in
Warning: card &CELL ignored
Warning: card / ignored

     Current dimensions of program PWSCF are:
     Max number of different atomic species (ntypx) = 10
     Max number of k-points (npk) =  40000
     Max angular momentum in pseudopotentials (lmaxx) =  4

     File ./pwscf.update deleted, as requested

     File ./pwscf.bfgs deleted, as requested
     file Au.pbe-n-kjpaw_psl.1.0.0.UPF: wavefunction(s)  6S 5D renormalized
     Found identity + (  0.0000 -0.5000  0.0000) symmetry
     This is a supercell, fractional translations are disabled

     Using Slab Decomposition

     bravais-lattice index     =            0
     lattice parameter (alat)  =       7.7101  a.u.
     unit-cell volume          =    2979.1368 (a.u.)^3
     number of atoms/cell      =           28
     number of atomic types    =            1
     number of electrons       =       308.00
     number of Kohn-Sham states=          185
     kinetic-energy cutoff     =      50.0000  Ry
     charge density cutoff     =     300.0000  Ry
     scf convergence threshold =      1.0E-06
     mixing beta               =       0.0080
     number of iterations used =            8  plain     mixing
     energy convergence thresh.=      1.0E-04
     force convergence thresh. =      1.0E-03
     Exchange-correlation= SLA  PW   PBX  PBC
                           (   1   4   3   4   0   0   0)
     nstep                     =           50

     celldm(1)=   7.710083  celldm(2)=   0.000000  celldm(3)=   0.000000
     celldm(4)=   0.000000  celldm(5)=   0.000000  celldm(6)=   0.000000

     crystal axes: (cart. coord. in units of alat)
               a(1) = (   1.000000   0.000000   0.000000 )
               a(2) = (   0.000000   1.414214   0.000000 )
               a(3) = (   0.000000   0.000000   4.596194 )

     reciprocal axes: (cart. coord. in units 2 pi/alat)
               b(1) = (  1.000000  0.000000  0.000000 )
               b(2) = (  0.000000  0.707107  0.000000 )
               b(3) = (  0.000000  0.000000  0.217571 )

     PseudoPot. # 1 for Au read from file:
     ./Au.pbe-n-kjpaw_psl.1.0.0.UPF
     MD5 check sum: 4db85c736373c707a97ce4c36c2a9d23
     Pseudo is Projector augmented-wave + core cor, Zval = 11.0
     Generated using &quot;atomic&quot; code by A. Dal Corso  v.6.3
     Shape of augmentation charge: PSQ
     Using radial grid of 1279 points,  6 beta functions with:
                l(1) =   0
                l(2) =   0
                l(3) =   1
                l(4) =   1
                l(5) =   2
                l(6) =   2
     Q(r) pseudized with 0 coefficients

     atomic species   valence    mass     pseudopotential
        Au            11.00   196.96657     Au( 1.00)

     No symmetry found

   Cartesian axes

     site n.     atom                  positions (alat units)
         1           Au  tau(   1) = (   0.5000000   0.3535534   0.0000000  )
         2           Au  tau(   2) = (   0.5000000   1.0606602   0.0000000  )
         3           Au  tau(   3) = (   0.0000000   0.0000000   0.3535534  )
         4           Au  tau(   4) = (   0.0000000   0.7071068   0.3535534  )
         5           Au  tau(   5) = (   0.5000000   0.3535534   0.7071068  )
         6           Au  tau(   6) = (   0.5000000   1.0606602   0.7071068  )
         7           Au  tau(   7) = (   0.0000000   0.0000000   1.0606602  )
         8           Au  tau(   8) = (   0.0000000   0.7071068   1.0606602  )
         9           Au  tau(   9) = (   0.5000000   0.3535534   1.4142136  )
        10           Au  tau(  10) = (   0.5000000   1.0606602   1.4142136  )
        11           Au  tau(  11) = (   0.0000000   0.0000000   1.7677670  )
        12           Au  tau(  12) = (   0.0000000   0.7071068   1.7677670  )
        13           Au  tau(  13) = (   0.5000000   0.3535534   2.1213203  )
        14           Au  tau(  14) = (   0.5000000   1.0606602   2.1213203  )
        15           Au  tau(  15) = (   0.0000000   0.0000000   2.4748737  )
        16           Au  tau(  16) = (   0.0000000   0.7071068   2.4748737  )
        17           Au  tau(  17) = (   0.6000000   0.3535534   2.8284271  )
        18           Au  tau(  18) = (   0.6000000   1.0606602   2.8284271  )
        19           Au  tau(  19) = (   0.1000000   0.0000000   3.1819805  )
        20           Au  tau(  20) = (   0.1000000   0.7071068   3.1819805  )
        21           Au  tau(  21) = (   0.6000000   0.3535534   3.5355339  )
        22           Au  tau(  22) = (   0.6000000   1.0606602   3.5355339  )
        23           Au  tau(  23) = (   0.1000000   0.0000000   3.8890873  )
        24           Au  tau(  24) = (   0.1000000   0.7071068   3.8890873  )
        25           Au  tau(  25) = (   0.6000000   0.3535534   4.2426407  )
        26           Au  tau(  26) = (   0.6000000   1.0606602   4.2426407  )
        27           Au  tau(  27) = (   0.1000000   0.0000000   4.5961941  )
        28           Au  tau(  28) = (   0.1000000   0.7071068   4.5961941  )

     number of k points=    50  Gaussian smearing, width (Ry)=  0.0080
                       cart. coord. in units 2pi/alat
        k(    1) = (   0.0000000   0.0000000   0.0000000), wk =   0.0208333
        k(    2) = (   0.0000000   0.0589256   0.0000000), wk =   0.0416667
        k(    3) = (   0.0000000   0.1178511   0.0000000), wk =   0.0416667
        k(    4) = (   0.0000000   0.1767767   0.0000000), wk =   0.0416667
        k(    5) = (   0.0000000   0.2357023   0.0000000), wk =   0.0416667
        k(    6) = (   0.0000000   0.2946278   0.0000000), wk =   0.0416667
        k(    7) = (   0.0000000  -0.3535534   0.0000000), wk =   0.0208333
        k(    8) = (   0.1250000   0.0000000   0.0000000), wk =   0.0416667
        k(    9) = (   0.1250000   0.0589256   0.0000000), wk =   0.0416667
        k(   10) = (   0.1250000   0.1178511   0.0000000), wk =   0.0416667
        k(   11) = (   0.1250000   0.1767767   0.0000000), wk =   0.0416667
        k(   12) = (   0.1250000   0.2357023   0.0000000), wk =   0.0416667
        k(   13) = (   0.1250000   0.2946278   0.0000000), wk =   0.0416667
        k(   14) = (   0.1250000  -0.3535534   0.0000000), wk =   0.0416667
        k(   15) = (   0.1250000  -0.2946278   0.0000000), wk =   0.0416667
        k(   16) = (   0.1250000  -0.2357023   0.0000000), wk =   0.0416667
        k(   17) = (   0.1250000  -0.1767767   0.0000000), wk =   0.0416667
        k(   18) = (   0.1250000  -0.1178511   0.0000000), wk =   0.0416667
        k(   19) = (   0.1250000  -0.0589256   0.0000000), wk =   0.0416667
        k(   20) = (   0.2500000   0.0000000   0.0000000), wk =   0.0416667
        k(   21) = (   0.2500000   0.0589256   0.0000000), wk =   0.0416667
        k(   22) = (   0.2500000   0.1178511   0.0000000), wk =   0.0416667
        k(   23) = (   0.2500000   0.1767767   0.0000000), wk =   0.0416667
        k(   24) = (   0.2500000   0.2357023   0.0000000), wk =   0.0416667
        k(   25) = (   0.2500000   0.2946278   0.0000000), wk =   0.0416667
        k(   26) = (   0.2500000  -0.3535534   0.0000000), wk =   0.0416667
        k(   27) = (   0.2500000  -0.2946278   0.0000000), wk =   0.0416667
        k(   28) = (   0.2500000  -0.2357023   0.0000000), wk =   0.0416667
        k(   29) = (   0.2500000  -0.1767767   0.0000000), wk =   0.0416667
        k(   30) = (   0.2500000  -0.1178511   0.0000000), wk =   0.0416667
        k(   31) = (   0.2500000  -0.0589256   0.0000000), wk =   0.0416667
        k(   32) = (   0.3750000   0.0000000   0.0000000), wk =   0.0416667
        k(   33) = (   0.3750000   0.0589256   0.0000000), wk =   0.0416667
        k(   34) = (   0.3750000   0.1178511   0.0000000), wk =   0.0416667
        k(   35) = (   0.3750000   0.1767767   0.0000000), wk =   0.0416667
        k(   36) = (   0.3750000   0.2357023   0.0000000), wk =   0.0416667
        k(   37) = (   0.3750000   0.2946278   0.0000000), wk =   0.0416667
        k(   38) = (   0.3750000  -0.3535534   0.0000000), wk =   0.0416667
        k(   39) = (   0.3750000  -0.2946278   0.0000000), wk =   0.0416667
        k(   40) = (   0.3750000  -0.2357023   0.0000000), wk =   0.0416667
        k(   41) = (   0.3750000  -0.1767767   0.0000000), wk =   0.0416667
        k(   42) = (   0.3750000  -0.1178511   0.0000000), wk =   0.0416667
        k(   43) = (   0.3750000  -0.0589256   0.0000000), wk =   0.0416667
        k(   44) = (  -0.5000000   0.0000000   0.0000000), wk =   0.0208333
        k(   45) = (  -0.5000000   0.0589256   0.0000000), wk =   0.0416667
        k(   46) = (  -0.5000000   0.1178511   0.0000000), wk =   0.0416667
        k(   47) = (  -0.5000000   0.1767767   0.0000000), wk =   0.0416667
        k(   48) = (  -0.5000000   0.2357023   0.0000000), wk =   0.0416667
        k(   49) = (  -0.5000000   0.2946278   0.0000000), wk =   0.0416667
        k(   50) = (  -0.5000000  -0.3535534   0.0000000), wk =   0.0208333

     Initial potential from superposition of free atoms

     starting charge     307.9969, renormalised to     308.0000
     Starting wfcs are  252 randomized atomic wfcs
     Checking if some PAW data can be deallocated...

     Self-consistent Calculation

     iteration #  1     ecut=    50.00 Ry     beta= 0.01
     Davidson diagonalization with overlap
     ethr =  1.00E-02,  avg # of iterations =  4.2

     total energy              =  -21689.59040732 Ry
     estimated scf accuracy    <      30.03371479 Ry

[...]

     iteration #  8     ecut=    50.00 Ry     beta= 0.01
     Davidson diagonalization with overlap
     c_bands:  2 eigenvalues not converged
     c_bands:  4 eigenvalues not converged
     ethr =  2.19E-04,  avg # of iterations =  9.1

[...]

     End of self-consistent calculation

          k = 0.0000 0.0000 0.0000 ( 17807 PWs)   bands (ev):

     0.7801   0.8464   0.9188   0.9195   1.9749   2.2000   2.2023   2.4109
     2.9002   3.0007   3.4392   3.4424   3.8676   5.0782   5.8356   5.8373
     5.9109   7.0090   7.0110   7.7084   8.3779   8.3956   9.6627   9.6853
    10.0659  10.3319  10.3333  10.4133  10.9010  10.9847  10.9865  11.0725
    11.2249  11.2344  11.2537  11.2967  11.3101  11.3385  11.4547  11.4624
    11.4698  11.5448  11.5686  11.6037  11.6779  11.7023  11.7230  11.8083
    11.8472  11.8568  11.8895  12.0064  12.0588  12.0950  12.0962  12.0977
    12.1154  12.3189  12.3705  12.3883  12.4310  12.5996  12.6186  12.6776
    12.7007  12.7686  12.7996  12.8188  12.9160  12.9830  13.0831  13.0840
    13.1193  13.1491  13.1760  13.1944  13.2136  13.2312  13.2497  13.4241
    13.4667  13.5478  13.5915  13.7012  13.7027  13.8187  13.8708  13.9520
    13.9898  14.0293  14.1386  14.2236  14.2552  14.2602  14.3226  14.4267
    14.4766  14.4883  14.5051  14.5438  14.6815  14.7504  14.7687  14.7742
    14.8069  14.8176  14.8756  14.8926  14.9007  14.9819  15.0263  15.0484
    15.1212  15.2060  15.2627  15.2828  15.3268  15.3301  15.4333  15.5127
    15.5186  15.5881  15.6208  15.6323  15.6996  15.7361  15.8269  15.8495
[...]
     atom   11 type  1   force =     0.00057724   -0.00003455   -0.00034174
     atom   12 type  1   force =     0.00057342    0.00003080   -0.00034434
     atom   13 type  1   force =    -0.00892508   -0.00000159    0.00268134
     atom   14 type  1   force =    -0.00893101   -0.00000254    0.00267045
     atom   15 type  1   force =     0.07561493   -0.00003847   -0.04234041
     atom   16 type  1   force =     0.07562336    0.00003847   -0.04238353
     atom   17 type  1   force =    -0.07612020   -0.00003090    0.04162660
     atom   18 type  1   force =    -0.07611413    0.00003393    0.04160438
     atom   19 type  1   force =     0.01041709    0.00000383   -0.00288855
     atom   20 type  1   force =     0.01041070   -0.00001202   -0.00286400
     atom   21 type  1   force =    -0.00034307   -0.00001198   -0.00182006
     atom   22 type  1   force =    -0.00034890    0.00001693   -0.00179766
     atom   23 type  1   force =    -0.01281690    0.00001093   -0.03319996
     atom   24 type  1   force =    -0.01281541   -0.00000407   -0.03318330
     atom   25 type  1   force =     1.78983560    0.00001520   -6.35179000
     atom   26 type  1   force =     1.78980719   -0.00001249   -6.35166927
     atom   27 type  1   force =     1.04114596   -0.00003388   -6.17442367
     atom   28 type  1   force =     1.04113209    0.00002950   -6.17437793

     Total force =    17.716449     Total SCF correction =     0.003006

     BFGS Geometry Optimization
     Energy error            =      0.0E+00 Ry
     Gradient error          =      6.4E+00 Ry/Bohr

     number of scf cycles    =   1
     number of bfgs steps    =   0

     energy             new  =  -21689.5135836412 Ry

     new trust radius        =       0.5000000000 bohr
     new conv_thr            =       0.0000010000 Ry

ATOMIC_POSITIONS (angstrom)
Au            2.0400000000        1.4424978336        0.2571546168    0   0   1
Au            2.0400000000        4.3274935009        0.2571511301    0   0   1
Au            0.0000000000        0.0000000000        1.7070864391    0   0   1
Au            0.0000000000        2.8849956672        1.7070853417    0   0   1
Au            2.0400000000        1.4424978336        2.8863867456    0   0   1
Au            2.0400000000        4.3274935009        2.8863865642    0   0   1
Au            0.0000000000        0.0000000000        4.3275938522    0   0   1
Au            0.0000000000        2.8849956672        4.3275939314    0   0   1
Au            2.0400000000        1.4424978336        5.7700285700    0   0   1
Au            2.0400000000        4.3274935009        5.7700284021    0   0   1
Au            0.0000000000        0.0000000000        7.2124749333    0   0   1
Au            0.0000000000        2.8849956672        7.2124748250    0   0   1
Au            2.0400000000        1.4424978336        8.6550986891    0   0   1
Au            2.0400000000        4.3274935009        8.6550982354    0   0   1
Au            0.0000000000        0.0000000000       10.0957212069    0   0   1
Au            0.0000000000        2.8849956672       10.0957194107    0   0   1
Au            2.4480000000        1.4424978336       11.5417165646    0   0   1
Au            2.4480000000        4.3274935009       11.5417156393    0   0   1
Au            0.4080000000        0.0000000000       12.9823601843    0   0   1
Au            0.4080000000        2.8849956672       12.9823612067    0   0   1
Au            2.4480000000        1.4424978336       14.4249025241    0   0   1
Au            2.4480000000        4.3274935009       14.4249034573    0   0   1
Au            0.4080000000        0.0000000000       15.8660932734    0   0   1
Au            0.4080000000        2.8849956672       15.8660939676    0   0   1
Au            2.4480000000        1.4424978336       17.0453993827    0   0   1
Au            2.4480000000        4.3274935009       17.0454044117    0   0   1
Au            0.4080000000        0.0000000000       18.4952851542    0   0   1
Au            0.4080000000        2.8849956672       18.4952870594    0   0   1

     Writing config-only to output data dir ./pwscf.save/
     NEW-OLD atomic charge density approx. for the potential

[...]

     Total force =     2.872719     Total SCF correction =     0.001900
     Energy error            =      1.2E+01 Ry
     Gradient error          =      1.1E+00 Ry/Bohr

[...]

     energy             old  =  -21689.5135836412 Ry
     energy             new  =  -21701.3308243037 Ry

     CASE: energy            _new < energy            _old

[...]

     Total force =     0.497177     Total SCF correction =     0.001689

     BFGS Geometry Optimization
     Energy error            =      0.0E+00 Ry
     Gradient error          =      2.0E-01 Ry/Bohr

[...]

     energy             new  =  -21703.1025119944 Ry

[...]

     iteration #  7     ecut=    50.00 Ry     beta= 0.01
     Davidson diagonalization with overlap
     c_bands:  1 eigenvalues not converged
     c_bands:  1 eigenvalues not converged
     c_bands:  1 eigenvalues not converged
     ethr =  1.98E-06,  avg # of iterations =  6.9

[...]

     Total force =     0.008265     Total SCF correction =     0.000899
     SCF correction compared to forces is large: reduce conv_thr to get better values
     Energy error            =      6.6E-04 Ry
     Gradient error          =      3.0E-03 Ry/Bohr

[...]

     Threshold (ethr) on eigenvalues was too large:
     Diagonalizing with lowered threshold

     Davidson diagonalization with overlap
     ethr =  8.08E-08,  avg # of iterations =  3.6

[...]

     Total force =     0.004006     Total SCF correction =     0.000254
     Energy error            =      9.1E-05 Ry
     Gradient error          =      1.6E-03 Ry/Bohr

     number of scf cycles    =   9
     number of bfgs steps    =   8

     energy             old  =  -21703.3828084378 Ry
     energy             new  =  -21703.3828995899 Ry

     CASE: energy            _new < energy            _old

     new trust radius        =       0.0023956235 bohr
     new conv_thr            =       0.0000000100 Ry

ATOMIC_POSITIONS (angstrom)
Au            2.0400000000        1.4424978336        0.7393117904    0   0   1
Au            2.0400000000        4.3274935009        0.7393094890    0   0   1
Au            0.0000000000        0.0000000000        1.9798948730    0   0   1
Au            0.0000000000        2.8849956672        1.9798918964    0   0   1
Au            2.0400000000        1.4424978336        3.3784400065    0   0   1
Au            2.0400000000        4.3274935009        3.3784283377    0   0   1
Au            0.0000000000        0.0000000000        4.6701053179    0   0   1
Au            0.0000000000        2.8849956672        4.6701000286    0   0   1
Au            2.0400000000        1.4424978336        6.0431404003    0   0   1
Au            2.0400000000        4.3274935009        6.0431258099    0   0   1
Au            0.0000000000        0.0000000000        7.3343195217    0   0   1
Au            0.0000000000        2.8849956672        7.3343150931    0   0   1
Au            2.0400000000        1.4424978336        8.7355208876    0   0   1
Au            2.0400000000        4.3274935009        8.7355169009    0   0   1
Au            0.0000000000        0.0000000000        9.9749759235    0   0   1
Au            0.0000000000        2.8849956672        9.9749752516    0   0   1
Au            2.4480000000        1.4424978336       11.4517383259    0   0   1
Au            2.4480000000        4.3274935009       11.4517500988    0   0   1
Au            0.4080000000        0.0000000000       12.6874229688    0   0   1
Au            0.4080000000        2.8849956672       12.6874278399    0   0   1
Au            2.4480000000        1.4424978336       14.0998962405    0   0   1
Au            2.4480000000        4.3274935009       14.0999109680    0   0   1
Au            0.4080000000        0.0000000000       15.3713704227    0   0   1
Au            0.4080000000        2.8849956672       15.3713746321    0   0   1
Au            2.4480000000        1.4424978336       16.7831500489    0   0   1
Au            2.4480000000        4.3274935009       16.7831586464    0   0   1
Au            0.4080000000        0.0000000000       18.0180165708    0   0   1
Au            0.4080000000        2.8849956672       18.0180174278    0   0   1

     Writing config-only to output data dir ./pwscf.save/
     NEW-OLD atomic charge density approx. for the potential

     Self-consistent Calculation

[...]

     Threshold (ethr) on eigenvalues was too large:
     Diagonalizing with lowered threshold

     Davidson diagonalization with overlap
     ethr =  6.45E-09,  avg # of iterations =  4.0

[...]

     total energy              =  -21703.38291686 Ry
     estimated scf accuracy    <       0.00000001 Ry

     iteration # 16     ecut=    50.00 Ry     beta= 0.01
     Davidson diagonalization with overlap
     ethr =  4.13E-12,  avg # of iterations =  1.6

     End of self-consistent calculation

[...]

          k = 0.3750-0.0589 0.0000 ( 17796 PWs)   bands (ev):

[...]

          k =-0.5000-0.3536 0.0000 ( 17712 PWs)   bands (ev):

     9.7102   9.7102   9.7120   9.7120  10.1980  10.1980  10.1987  10.1987
    10.3457  10.3457  10.3466  10.3466  10.7163  10.7163  10.7194  10.7194
    10.7793  10.7793  10.7799  10.7799  10.9909  10.9909  10.9925  10.9925
    11.2134  11.2134  11.2173  11.2173  11.5819  11.5819  11.5889  11.5889
    11.7040  11.7040  11.7087  11.7087  11.8667  11.8667  11.8698  11.8698
    11.9263  11.9263  11.9302  11.9302  12.0132  12.0132  12.0141  12.0141
    12.1038  12.1038  12.1041  12.1041  12.2121  12.2121  12.2135  12.2135
    12.2775  12.2775  12.2789  12.2789  12.3457  12.3457  12.3473  12.3473
    12.3957  12.3957  12.3967  12.3967  12.4797  12.4797  12.4814  12.4814
    12.6404  12.6404  12.6428  12.6428  12.9351  12.9351  12.9362  12.9362
    13.1826  13.1826  13.1836  13.1836  13.3247  13.3247  13.3274  13.3274
    13.4823  13.4823  13.4832  13.4832  13.5961  13.5961  13.5967  13.5967
    13.6365  13.6365  13.6375  13.6375  13.6752  13.6752  13.6762  13.6762
    13.7566  13.7566  13.7569  13.7569  13.9265  13.9265  13.9276  13.9276
    14.3212  14.3212  14.3224  14.3224  14.4496  14.4496  14.4502  14.4502
    14.5214  14.5214  14.5222  14.5222  14.6425  14.6425  14.6441  14.6441
    15.4090  15.4090  15.4093  15.4093  15.4689  15.4689  15.4693  15.4693
    15.5930  15.5930  15.5937  15.5937  15.6693  15.6693  15.6706  15.6707
    16.5849  16.5849  16.5850  16.5850  16.6720  16.6720  16.6726  16.6726
    17.6801  17.6801  17.6804  17.6804  17.7418  17.7418  17.7424  17.7424
    19.4519  19.4519  19.4536  19.4537  19.5394  19.5394  19.5406  19.5406
    23.0931  23.0931  23.0994  23.0994  23.4728  23.4728  23.4778  23.4778
    25.6566  25.6566  25.6572  25.6572  26.0706  26.0707  26.0716  26.0716
    26.1522

     the Fermi energy is    17.6676 ev

!    total energy              =  -21703.38291684 Ry

     total all-electron energy =  -1064671.073466 Ry
     estimated scf accuracy    <          5.3E-09 Ry
     smearing contrib. (-TS)   =      -0.00331630 Ry
     internal energy E=F+TS    =  -21703.37960054 Ry

     The total energy is F=E-TS. E is the sum of the following terms:
     one-electron contribution =     449.60731506 Ry
     hartree contribution      =     200.02476574 Ry
     xc contribution           =    -901.62251677 Ry
     ewald contribution        =   -2060.19640456 Ry
     one-center paw contrib.   =  -19391.19276000 Ry

     convergence has been achieved in  16 iterations

     Forces acting on atoms (cartesian axes, Ry/au):

     atom    1 type  1   force =     0.07035301   -0.00000041   -0.00012898
     atom    2 type  1   force =     0.07035323    0.00000034   -0.00012952
     atom    3 type  1   force =    -0.01296847    0.00000076   -0.00043315
     atom    4 type  1   force =    -0.01296856   -0.00000076   -0.00043269
     atom    5 type  1   force =     0.00006942   -0.00000023    0.00064646
     atom    6 type  1   force =     0.00006939    0.00000026    0.00064986
     atom    7 type  1   force =    -0.00039964    0.00000022   -0.00046674
     atom    8 type  1   force =    -0.00039965   -0.00000020   -0.00046537
     atom    9 type  1   force =    -0.00038709    0.00000005    0.00089419
     atom   10 type  1   force =    -0.00038708   -0.00000000    0.00089908
     atom   11 type  1   force =     0.00009241   -0.00000093    0.00017322
     atom   12 type  1   force =     0.00009245    0.00000090    0.00017456
     atom   13 type  1   force =    -0.01291907    0.00000027   -0.00000133
     atom   14 type  1   force =    -0.01291865   -0.00000024   -0.00000056
     atom   15 type  1   force =     0.06976225   -0.00000182    0.00096455
     atom   16 type  1   force =     0.06976226    0.00000180    0.00096451
     atom   17 type  1   force =    -0.06981932    0.00000049    0.00037642
     atom   18 type  1   force =    -0.06981730   -0.00000048    0.00037220
     atom   19 type  1   force =     0.01306202    0.00000003   -0.00018524
     atom   20 type  1   force =     0.01306183   -0.00000007   -0.00018700
     atom   21 type  1   force =     0.00021920   -0.00000001    0.00006214
     atom   22 type  1   force =     0.00021919    0.00000001    0.00005819
     atom   23 type  1   force =     0.00022280    0.00000072   -0.00075606
     atom   24 type  1   force =     0.00022282   -0.00000072   -0.00075735
     atom   25 type  1   force =     0.01320194   -0.00000024   -0.00045192
     atom   26 type  1   force =     0.01320229    0.00000025   -0.00045339
     atom   27 type  1   force =    -0.07049080    0.00000116   -0.00069313
     atom   28 type  1   force =    -0.07049088   -0.00000112   -0.00069296

     Total force =     0.002843     Total SCF correction =     0.000423
     SCF correction compared to forces is large: reduce conv_thr to get better values
     Energy error            =      1.7E-05 Ry
     Gradient error          =      9.6E-04 Ry/Bohr

     bfgs converged in  10 scf cycles and   9 bfgs steps
     (criteria: energy <  1.0E-04 Ry, force <  1.0E-03 Ry/Bohr)

     End of BFGS Geometry Optimization

     Final energy             =  -21703.3829168408 Ry

     File ./pwscf.bfgs deleted, as requested
Begin final coordinates

ATOMIC_POSITIONS (angstrom)
Au            2.0400000000        1.4424978336        0.7393117904    0   0   1
Au            2.0400000000        4.3274935009        0.7393094890    0   0   1
Au            0.0000000000        0.0000000000        1.9798948730    0   0   1
Au            0.0000000000        2.8849956672        1.9798918964    0   0   1
Au            2.0400000000        1.4424978336        3.3784400065    0   0   1
Au            2.0400000000        4.3274935009        3.3784283377    0   0   1
Au            0.0000000000        0.0000000000        4.6701053179    0   0   1
Au            0.0000000000        2.8849956672        4.6701000286    0   0   1
Au            2.0400000000        1.4424978336        6.0431404003    0   0   1
Au            2.0400000000        4.3274935009        6.0431258099    0   0   1
Au            0.0000000000        0.0000000000        7.3343195217    0   0   1
Au            0.0000000000        2.8849956672        7.3343150931    0   0   1
Au            2.0400000000        1.4424978336        8.7355208876    0   0   1
Au            2.0400000000        4.3274935009        8.7355169009    0   0   1
Au            0.0000000000        0.0000000000        9.9749759235    0   0   1
Au            0.0000000000        2.8849956672        9.9749752516    0   0   1
Au            2.4480000000        1.4424978336       11.4517383259    0   0   1
Au            2.4480000000        4.3274935009       11.4517500988    0   0   1
Au            0.4080000000        0.0000000000       12.6874229688    0   0   1
Au            0.4080000000        2.8849956672       12.6874278399    0   0   1
Au            2.4480000000        1.4424978336       14.0998962405    0   0   1
Au            2.4480000000        4.3274935009       14.0999109680    0   0   1
Au            0.4080000000        0.0000000000       15.3713704227    0   0   1
Au            0.4080000000        2.8849956672       15.3713746321    0   0   1
Au            2.4480000000        1.4424978336       16.7831500489    0   0   1
Au            2.4480000000        4.3274935009       16.7831586464    0   0   1
Au            0.4080000000        0.0000000000       18.0180165708    0   0   1
Au            0.4080000000        2.8849956672       18.0180174278    0   0   1
End final coordinates

     Writing all to output data dir ./pwscf.save/

     General routines

     Parallel routines

   This run was terminated on:  19:11:41   8Mar2024

   JOB DONE.