     Program PWSCF v.7.0 starts on  2Mar2024 at  8:55:47

     R & G space division:  proc/nbgrp/npool/nimage =      10

     Reading input from GSF110_0.2.in
Warning: card &CELL ignored
Warning: card / ignored

     Current dimensions of program PWSCF are:
     Max number of different atomic species (ntypx) = 10
     Max number of k-points (npk) =  40000
     Max angular momentum in pseudopotentials (lmaxx) =  4

     File ./pwscf.bfgs deleted, as requested
     file Au.pbe-n-kjpaw_psl.1.0.0.UPF: wavefunction(s)  6S 5D renormalized
     Found identity + (  0.0000 -0.5000  0.0000) symmetry
     This is a supercell, fractional translations are disabled
     Message from routine setup:
     using ibrav=0 with symmetry is DISCOURAGED, use correct ibrav instead

     Using Slab Decomposition

     bravais-lattice index     =            0
     lattice parameter (alat)  =       7.7101  a.u.
     unit-cell volume          =    2979.1368 (a.u.)^3
     number of atoms/cell      =           28
     number of atomic types    =            1
     number of electrons       =       308.00
     number of Kohn-Sham states=          185
     kinetic-energy cutoff     =      50.0000  Ry
     charge density cutoff     =     200.0000  Ry
     scf convergence threshold =      1.0E-06
     mixing beta               =       0.1000
     number of iterations used =            8  plain     mixing
     Exchange-correlation= SLA  PW   PBX  PBC
                           (   1   4   3   4   0   0   0)

     celldm(1)=   7.710083  celldm(2)=   0.000000  celldm(3)=   0.000000
     celldm(4)=   0.000000  celldm(5)=   0.000000  celldm(6)=   0.000000

     crystal axes: (cart. coord. in units of alat)
               a(1) = (   1.000000   0.000000   0.000000 )
               a(2) = (   0.000000   1.414214   0.000000 )
               a(3) = (   0.000000   0.000000   4.596194 )

     reciprocal axes: (cart. coord. in units 2 pi/alat)
               b(1) = (  1.000000  0.000000  0.000000 )
               b(2) = (  0.000000  0.707107  0.000000 )
               b(3) = (  0.000000  0.000000  0.217571 )

     PseudoPot. # 1 for Au read from file:
     ./Au.pbe-n-kjpaw_psl.1.0.0.UPF
     MD5 check sum: 4db85c736373c707a97ce4c36c2a9d23
     Pseudo is Projector augmented-wave + core cor, Zval = 11.0
     Generated using &quot;atomic&quot; code by A. Dal Corso  v.6.3
     Shape of augmentation charge: PSQ
     Using radial grid of 1279 points,  6 beta functions with:
                l(1) =   0
                l(2) =   0
                l(3) =   1
                l(4) =   1
                l(5) =   2
                l(6) =   2
     Q(r) pseudized with 0 coefficients

     atomic species   valence    mass     pseudopotential
        Au            11.00   196.96657     Au( 1.00)

      2 Sym. Ops. (no inversion) found

   Cartesian axes

     site n.     atom                  positions (alat units)
         1           Au  tau(   1) = (   0.5000000   0.3535534   0.0000000  )
         2           Au  tau(   2) = (   0.5000000   1.0606602   0.0000000  )
         3           Au  tau(   3) = (   0.0000000   0.0000000   0.3535534  )
         4           Au  tau(   4) = (   0.0000000   0.7071068   0.3535534  )
         5           Au  tau(   5) = (   0.5000000   0.3535534   0.7071068  )
         6           Au  tau(   6) = (   0.5000000   1.0606602   0.7071068  )
         7           Au  tau(   7) = (   0.0000000   0.0000000   1.0606602  )
         8           Au  tau(   8) = (   0.0000000   0.7071068   1.0606602  )
         9           Au  tau(   9) = (   0.5000000   0.3535534   1.4142136  )
        10           Au  tau(  10) = (   0.5000000   1.0606602   1.4142136  )
        11           Au  tau(  11) = (   0.0000000   0.0000000   1.7677670  )
        12           Au  tau(  12) = (   0.0000000   0.7071068   1.7677670  )
        13           Au  tau(  13) = (   0.5000000   0.3535534   2.1213203  )
        14           Au  tau(  14) = (   0.5000000   1.0606602   2.1213203  )
        15           Au  tau(  15) = (   0.0000000   0.0000000   2.4748737  )
        16           Au  tau(  16) = (   0.0000000   0.7071068   2.4748737  )
        17           Au  tau(  17) = (   0.7000000   0.3535534   2.8284271  )
        18           Au  tau(  18) = (   0.7000000   1.0606602   2.8284271  )
        19           Au  tau(  19) = (   0.2000000   0.0000000   3.1819805  )
        20           Au  tau(  20) = (   0.2000000   0.7071068   3.1819805  )
        21           Au  tau(  21) = (   0.7000000   0.3535534   3.5355339  )
        22           Au  tau(  22) = (   0.7000000   1.0606602   3.5355339  )
        23           Au  tau(  23) = (   0.2000000   0.0000000   3.8890873  )
        24           Au  tau(  24) = (   0.2000000   0.7071068   3.8890873  )
        25           Au  tau(  25) = (   0.7000000   0.3535534   4.2426407  )
        26           Au  tau(  26) = (   0.7000000   1.0606602   4.2426407  )
        27           Au  tau(  27) = (   0.2000000   0.0000000   4.5961941  )
        28           Au  tau(  28) = (   0.2000000   0.7071068   4.5961941  )

     number of k points=    35  Gaussian smearing, width (Ry)=  0.0200
                       cart. coord. in units 2pi/alat
        k(    1) = (   0.0000000   0.0000000   0.0000000), wk =   0.0208333
        k(    2) = (   0.0000000   0.0589256   0.0000000), wk =   0.0416667
        k(    3) = (   0.0000000   0.1178511   0.0000000), wk =   0.0416667
        k(    4) = (   0.0000000   0.1767767   0.0000000), wk =   0.0416667
        k(    5) = (   0.0000000   0.2357023   0.0000000), wk =   0.0416667
        k(    6) = (   0.0000000   0.2946278   0.0000000), wk =   0.0416667
        k(    7) = (   0.0000000  -0.3535534   0.0000000), wk =   0.0208333
        k(    8) = (   0.1250000   0.0000000   0.0000000), wk =   0.0416667
        k(    9) = (   0.1250000   0.0589256   0.0000000), wk =   0.0833333
        k(   10) = (   0.1250000   0.1178511   0.0000000), wk =   0.0833333
        k(   11) = (   0.1250000   0.1767767   0.0000000), wk =   0.0833333
        k(   12) = (   0.1250000   0.2357023   0.0000000), wk =   0.0833333
        k(   13) = (   0.1250000   0.2946278   0.0000000), wk =   0.0833333
        k(   14) = (   0.1250000  -0.3535534   0.0000000), wk =   0.0416667
        k(   15) = (   0.2500000   0.0000000   0.0000000), wk =   0.0416667
        k(   16) = (   0.2500000   0.0589256   0.0000000), wk =   0.0833333
        k(   17) = (   0.2500000   0.1178511   0.0000000), wk =   0.0833333
        k(   18) = (   0.2500000   0.1767767   0.0000000), wk =   0.0833333
        k(   19) = (   0.2500000   0.2357023   0.0000000), wk =   0.0833333
        k(   20) = (   0.2500000   0.2946278   0.0000000), wk =   0.0833333
        k(   21) = (   0.2500000  -0.3535534   0.0000000), wk =   0.0416667
        k(   22) = (   0.3750000   0.0000000   0.0000000), wk =   0.0416667
        k(   23) = (   0.3750000   0.0589256   0.0000000), wk =   0.0833333
        k(   24) = (   0.3750000   0.1178511   0.0000000), wk =   0.0833333
        k(   25) = (   0.3750000   0.1767767   0.0000000), wk =   0.0833333
        k(   26) = (   0.3750000   0.2357023   0.0000000), wk =   0.0833333
        k(   27) = (   0.3750000   0.2946278   0.0000000), wk =   0.0833333
        k(   28) = (   0.3750000  -0.3535534   0.0000000), wk =   0.0416667
        k(   29) = (  -0.5000000   0.0000000   0.0000000), wk =   0.0208333
        k(   30) = (  -0.5000000   0.0589256   0.0000000), wk =   0.0416667
        k(   31) = (  -0.5000000   0.1178511   0.0000000), wk =   0.0416667
        k(   32) = (  -0.5000000   0.1767767   0.0000000), wk =   0.0416667
        k(   33) = (  -0.5000000   0.2357023   0.0000000), wk =   0.0416667
        k(   34) = (  -0.5000000   0.2946278   0.0000000), wk =   0.0416667
        k(   35) = (  -0.5000000  -0.3535534   0.0000000), wk =   0.0208333

     Initial potential from superposition of free atoms

     starting charge     307.9969, renormalised to     308.0000
     Starting wfcs are  252 randomized atomic wfcs
     Checking if some PAW data can be deallocated...

     Self-consistent Calculation

     iteration #  1     ecut=    50.00 Ry     beta= 0.10
     Davidson diagonalization with overlap
     ethr =  1.00E-02,  avg # of iterations =  4.1

     total energy              =  -21690.49519534 Ry
     estimated scf accuracy    <      16.58340048 Ry

[...]

     iteration #  5     ecut=    50.00 Ry     beta= 0.10
     Davidson diagonalization with overlap
     c_bands:  1 eigenvalues not converged
     ethr =  2.82E-04,  avg # of iterations =  7.8

[...]

     iteration # 12     ecut=    50.00 Ry     beta= 0.10
     Davidson diagonalization with overlap
     c_bands:  1 eigenvalues not converged
     c_bands:  2 eigenvalues not converged
     ethr =  8.26E-07,  avg # of iterations =  8.4

[...]

     total energy              =  -21693.40834217 Ry
     estimated scf accuracy    <       0.00000511 Ry

     iteration # 19     ecut=    50.00 Ry     beta= 0.10
     Davidson diagonalization with overlap
     ethr =  1.66E-09,  avg # of iterations =  2.0

     End of self-consistent calculation

          k = 0.0000 0.0000 0.0000 ( 17807 PWs)   bands (ev):

     1.5640   2.0955   2.0955   2.3004   2.8608   3.7861   4.4114   4.4661
     4.4668   5.0867   5.1710   5.1716   5.8383   6.3074   6.4821   6.4826
     7.9186   8.1608   8.2847   9.1101   9.1104   9.2622   9.4767   9.7275
    10.3318  10.4059  10.4105  10.5641  10.5696  10.5745  10.6687  10.9866
    11.0046  11.0076  11.1878  11.2217  11.2223  11.3109  11.3406  11.3433
    11.4017  11.4458  11.4512  11.5287  11.6082  11.6099  11.6398  11.6787
    11.7416  11.7915  11.7984  11.8132  11.9247  11.9440  12.0173  12.1219
    12.1609  12.1976  12.3410  12.3420  12.4112  12.4150  12.4461  12.4697
    12.5704  12.6340  12.6722  12.7057  12.8182  12.9543  12.9618  13.0394
    13.0395  13.0653  13.1283  13.1303  13.2817  13.2819  13.3462  13.4373
    13.4391  13.4577  13.5075  13.5734  13.5838  13.6923  13.7452  13.8852
    13.9047  13.9076  13.9557  14.0916  14.2294  14.2460  14.3276  14.3521
    14.3736  14.4066  14.4680  14.4716  14.4882  14.5382  14.5857  14.6713
    14.6753  14.7589  14.8294  14.8765  14.9416  14.9459  14.9499  14.9902
    15.0271  15.0467  15.1376  15.1692  15.1838  15.3428  15.3731  15.3942
    15.4623  15.4660  15.5323  15.5599  15.6329  15.6786  15.6900  15.7055
    15.7708  15.8435  15.8449  15.8539  15.9424  16.0077  16.0421  16.1390
    16.2114  16.2290  16.3003  16.3067  16.3923  16.4794  16.5461  16.7733
    16.8312  16.8363  17.4510  17.4529  17.6580  17.6706  17.8398  17.8493
    17.9689  17.9958  18.0158  18.3341  18.3345  18.6940  18.7564  18.7758
    18.9767  19.4330  20.0252  20.8352  21.0067  21.0084  21.4286  21.9749
    22.3836  22.8022  23.6065  23.9682  23.9850  23.9855  24.0133  24.5687
    24.5882  24.6292  25.1122  25.1423  25.2531  25.8150  26.0139  26.0152
    26.0706

[...]

          k = 0.3750-0.3536 0.0000 ( 17776 PWs)   bands (ev):

[...]

          k =-0.5000 0.0000 0.0000 ( 17814 PWs)   bands (ev):

[...]

          k =-0.5000-0.3536 0.0000 ( 17712 PWs)   bands (ev):

     1.7621   1.7621   2.8192   2.8192   3.4179   3.4179   3.9320   3.9320
     4.6026   4.6026   6.2382   6.2382   6.2522   6.2522   7.3976   7.3976
     7.8869   7.8869   9.3144   9.3144  10.0159  10.0159  10.1861  10.1861
    10.5880  10.5880  10.6447  10.6447  11.0361  11.0361  11.2093  11.2093
    11.3172  11.3172  11.4306  11.4306  11.4992  11.4992  11.5122  11.5122
    11.6541  11.6541  11.7730  11.7730  11.8570  11.8570  11.9442  11.9442
    11.9573  11.9573  12.2657  12.2657  12.4002  12.4002  12.4701  12.4701
    12.5089  12.5089  12.5198  12.5198  12.6938  12.6938  12.7258  12.7258
    12.7947  12.7947  12.8761  12.8761  12.9647  12.9647  12.9740  12.9740
    13.0471  13.0471  13.1108  13.1108  13.1482  13.1482  13.1754  13.1754
    13.2583  13.2583  13.3140  13.3140  13.4038  13.4038  13.4498  13.4498
    13.5882  13.5883  13.6194  13.6194  13.6737  13.6737  13.7171  13.7172
    13.8357  13.8357  13.9439  13.9439  14.0157  14.0157  14.0912  14.0912
    14.1109  14.1109  14.1861  14.1861  14.2545  14.2545  14.3584  14.3584
    14.4640  14.4640  14.5824  14.5824  14.6700  14.6700  14.8141  14.8141
    14.8928  14.8928  15.0420  15.0420  15.1641  15.1641  15.1782  15.1782
    15.3164  15.3164  15.3797  15.3797  15.5405  15.5405  15.6622  15.6622
    15.9344  15.9344  16.0870  16.0870  16.1617  16.1617  16.2948  16.2948
    16.6326  16.6326  16.9107  16.9107  16.9933  16.9933  17.5587  17.5587
    17.6261  17.6261  17.7293  17.7293  17.8410  17.8410  18.1332  18.1332
    19.5321  19.5321  19.7997  19.7997  19.9084  19.9084  20.2573  20.2573
    23.0323  23.0323  23.1263  23.1263  23.2706  23.2706  23.8782  23.8782
    24.6346  24.6346  25.5107  25.5108  26.1221  26.1221  26.1818  26.1820
    26.3576

     the Fermi energy is    18.0049 ev

!    total energy              =  -21693.40834194 Ry

     total all-electron energy =  -1064661.098891 Ry
     estimated scf accuracy    <       0.00000091 Ry
     smearing contrib. (-TS)   =      -0.02944909 Ry
     internal energy E=F+TS    =  -21693.37889285 Ry

     The total energy is F=E-TS. E is the sum of the following terms:
     one-electron contribution =      57.23614290 Ry
     hartree contribution      =     394.56891254 Ry
     xc contribution           =    -906.97728925 Ry
     ewald contribution        =   -1844.70824080 Ry
     one-center paw contrib.   =  -19393.49841824 Ry

     convergence has been achieved in  19 iterations

     Forces acting on atoms (cartesian axes, Ry/au):

     atom    1 type  1   force =     0.16450269   -0.00000311    3.19969499
     atom    2 type  1   force =     0.16450269    0.00000311    3.19969499
     atom    3 type  1   force =    -1.91774042    0.00000000    3.38601694
     atom    4 type  1   force =    -1.91773402    0.00000000    3.38602913
     atom    5 type  1   force =     0.01070014    0.00000424    0.03997123
     atom    6 type  1   force =     0.01070014   -0.00000424    0.03997123
     atom    7 type  1   force =    -0.00312207    0.00000000    0.00793909
     atom    8 type  1   force =    -0.00312155    0.00000000    0.00793294
     atom    9 type  1   force =    -0.00086404   -0.00000052    0.00176368
     atom   10 type  1   force =    -0.00086404    0.00000052    0.00176368
     atom   11 type  1   force =     0.00071547    0.00000000   -0.00080208
     atom   12 type  1   force =     0.00071687    0.00000000   -0.00080609
     atom   13 type  1   force =    -0.01364059   -0.00000281    0.00370741
     atom   14 type  1   force =    -0.01364059    0.00000281    0.00370741
     atom   15 type  1   force =     0.20539014    0.00000000   -0.20269364
     atom   16 type  1   force =     0.20539890    0.00000000   -0.20268317
     atom   17 type  1   force =    -0.20577770    0.00000787    0.20295830
     atom   18 type  1   force =    -0.20577770   -0.00000787    0.20295830
     atom   19 type  1   force =     0.01497612    0.00000000   -0.00644276
     atom   20 type  1   force =     0.01497400    0.00000000   -0.00644103
     atom   21 type  1   force =     0.00269383    0.00000394   -0.00625835
     atom   22 type  1   force =     0.00269383   -0.00000394   -0.00625835
     atom   23 type  1   force =    -0.01106570    0.00000000   -0.03950926
     atom   24 type  1   force =    -0.01106348    0.00000000   -0.03951544
     atom   25 type  1   force =     1.91732809   -0.00000349   -3.38685245
     atom   26 type  1   force =     1.91732809    0.00000349   -3.38685245
     atom   27 type  1   force =    -0.16410291    0.00000000   -3.19950438
     atom   28 type  1   force =    -0.16410620    0.00000000   -3.19948985

     Total force =    10.098455     Total SCF correction =     0.002209

     Writing all to output data dir ./pwscf.save/

     General routines

     Parallel routines

   This run was terminated on:   9: 9:27   2Mar2024

   JOB DONE.