     Program PWSCF v.7.0 starts on  2Mar2024 at  7:56:32

     R & G space division:  proc/nbgrp/npool/nimage =      10

     Reading input from GSF110_0.0.in
Warning: card &CELL ignored
Warning: card / ignored

     Current dimensions of program PWSCF are:
     Max number of different atomic species (ntypx) = 10
     Max number of k-points (npk) =  40000
     Max angular momentum in pseudopotentials (lmaxx) =  4
     file Au.pbe-n-kjpaw_psl.1.0.0.UPF: wavefunction(s)  6S 5D renormalized
     Found identity + (  0.0000 -0.5000  0.0000) symmetry
     This is a supercell, fractional translations are disabled
     Message from routine setup:
     using ibrav=0 with symmetry is DISCOURAGED, use correct ibrav instead

     Using Slab Decomposition

     bravais-lattice index     =            0
     lattice parameter (alat)  =       7.7101  a.u.
     unit-cell volume          =    2979.1368 (a.u.)^3
     number of atoms/cell      =           28
     number of atomic types    =            1
     number of electrons       =       308.00
     number of Kohn-Sham states=          185
     kinetic-energy cutoff     =      50.0000  Ry
     charge density cutoff     =     200.0000  Ry
     scf convergence threshold =      1.0E-06
     mixing beta               =       0.1000
     number of iterations used =            8  plain     mixing
     Exchange-correlation= SLA  PW   PBX  PBC
                           (   1   4   3   4   0   0   0)

     celldm(1)=   7.710083  celldm(2)=   0.000000  celldm(3)=   0.000000
     celldm(4)=   0.000000  celldm(5)=   0.000000  celldm(6)=   0.000000

     crystal axes: (cart. coord. in units of alat)
               a(1) = (   1.000000   0.000000   0.000000 )
               a(2) = (   0.000000   1.414214   0.000000 )
               a(3) = (   0.000000   0.000000   4.596194 )

     reciprocal axes: (cart. coord. in units 2 pi/alat)
               b(1) = (  1.000000  0.000000  0.000000 )
               b(2) = (  0.000000  0.707107  0.000000 )
               b(3) = (  0.000000  0.000000  0.217571 )

     PseudoPot. # 1 for Au read from file:
     ./Au.pbe-n-kjpaw_psl.1.0.0.UPF
     MD5 check sum: 4db85c736373c707a97ce4c36c2a9d23
     Pseudo is Projector augmented-wave + core cor, Zval = 11.0
     Generated using &quot;atomic&quot; code by A. Dal Corso  v.6.3
     Shape of augmentation charge: PSQ
     Using radial grid of 1279 points,  6 beta functions with:
                l(1) =   0
                l(2) =   0
                l(3) =   1
                l(4) =   1
                l(5) =   2
                l(6) =   2
     Q(r) pseudized with 0 coefficients

     atomic species   valence    mass     pseudopotential
        Au            11.00   196.96657     Au( 1.00)

      4 Sym. Ops. (no inversion) found

   Cartesian axes

     site n.     atom                  positions (alat units)
         1           Au  tau(   1) = (   0.5000000   0.3535534   0.0000000  )
         2           Au  tau(   2) = (   0.5000000   1.0606602   0.0000000  )
         3           Au  tau(   3) = (   0.0000000   0.0000000   0.3535534  )
         4           Au  tau(   4) = (   0.0000000   0.7071068   0.3535534  )
         5           Au  tau(   5) = (   0.5000000   0.3535534   0.7071068  )
         6           Au  tau(   6) = (   0.5000000   1.0606602   0.7071068  )
         7           Au  tau(   7) = (   0.0000000   0.0000000   1.0606602  )
         8           Au  tau(   8) = (   0.0000000   0.7071068   1.0606602  )
         9           Au  tau(   9) = (   0.5000000   0.3535534   1.4142136  )
        10           Au  tau(  10) = (   0.5000000   1.0606602   1.4142136  )
        11           Au  tau(  11) = (   0.0000000   0.0000000   1.7677670  )
        12           Au  tau(  12) = (   0.0000000   0.7071068   1.7677670  )
        13           Au  tau(  13) = (   0.5000000   0.3535534   2.1213203  )
        14           Au  tau(  14) = (   0.5000000   1.0606602   2.1213203  )
        15           Au  tau(  15) = (   0.0000000   0.0000000   2.4748737  )
        16           Au  tau(  16) = (   0.0000000   0.7071068   2.4748737  )
        17           Au  tau(  17) = (   0.5000000   0.3535534   2.8284271  )
        18           Au  tau(  18) = (   0.5000000   1.0606602   2.8284271  )
        19           Au  tau(  19) = (   0.0000000   0.0000000   3.1819805  )
        20           Au  tau(  20) = (   0.0000000   0.7071068   3.1819805  )
        21           Au  tau(  21) = (   0.5000000   0.3535534   3.5355339  )
        22           Au  tau(  22) = (   0.5000000   1.0606602   3.5355339  )
        23           Au  tau(  23) = (   0.0000000   0.0000000   3.8890873  )
        24           Au  tau(  24) = (   0.0000000   0.7071068   3.8890873  )
        25           Au  tau(  25) = (   0.5000000   0.3535534   4.2426407  )
        26           Au  tau(  26) = (   0.5000000   1.0606602   4.2426407  )
        27           Au  tau(  27) = (   0.0000000   0.0000000   4.5961941  )
        28           Au  tau(  28) = (   0.0000000   0.7071068   4.5961941  )

     number of k points=    35  Gaussian smearing, width (Ry)=  0.0200
                       cart. coord. in units 2pi/alat
        k(    1) = (   0.0000000   0.0000000   0.0000000), wk =   0.0208333
        k(    2) = (   0.0000000   0.0589256   0.0000000), wk =   0.0416667
        k(    3) = (   0.0000000   0.1178511   0.0000000), wk =   0.0416667
        k(    4) = (   0.0000000   0.1767767   0.0000000), wk =   0.0416667
        k(    5) = (   0.0000000   0.2357023   0.0000000), wk =   0.0416667
        k(    6) = (   0.0000000   0.2946278   0.0000000), wk =   0.0416667
        k(    7) = (   0.0000000  -0.3535534   0.0000000), wk =   0.0208333
        k(    8) = (   0.1250000   0.0000000   0.0000000), wk =   0.0416667
        k(    9) = (   0.1250000   0.0589256   0.0000000), wk =   0.0833333
        k(   10) = (   0.1250000   0.1178511   0.0000000), wk =   0.0833333
        k(   11) = (   0.1250000   0.1767767   0.0000000), wk =   0.0833333
        k(   12) = (   0.1250000   0.2357023   0.0000000), wk =   0.0833333
        k(   13) = (   0.1250000   0.2946278   0.0000000), wk =   0.0833333
        k(   14) = (   0.1250000  -0.3535534   0.0000000), wk =   0.0416667
        k(   15) = (   0.2500000   0.0000000   0.0000000), wk =   0.0416667
        k(   16) = (   0.2500000   0.0589256   0.0000000), wk =   0.0833333
        k(   17) = (   0.2500000   0.1178511   0.0000000), wk =   0.0833333
        k(   18) = (   0.2500000   0.1767767   0.0000000), wk =   0.0833333
        k(   19) = (   0.2500000   0.2357023   0.0000000), wk =   0.0833333
        k(   20) = (   0.2500000   0.2946278   0.0000000), wk =   0.0833333
        k(   21) = (   0.2500000  -0.3535534   0.0000000), wk =   0.0416667
        k(   22) = (   0.3750000   0.0000000   0.0000000), wk =   0.0416667
        k(   23) = (   0.3750000   0.0589256   0.0000000), wk =   0.0833333
        k(   24) = (   0.3750000   0.1178511   0.0000000), wk =   0.0833333
        k(   25) = (   0.3750000   0.1767767   0.0000000), wk =   0.0833333
        k(   26) = (   0.3750000   0.2357023   0.0000000), wk =   0.0833333
        k(   27) = (   0.3750000   0.2946278   0.0000000), wk =   0.0833333
        k(   28) = (   0.3750000  -0.3535534   0.0000000), wk =   0.0416667
        k(   29) = (  -0.5000000   0.0000000   0.0000000), wk =   0.0208333
        k(   30) = (  -0.5000000   0.0589256   0.0000000), wk =   0.0416667
        k(   31) = (  -0.5000000   0.1178511   0.0000000), wk =   0.0416667
        k(   32) = (  -0.5000000   0.1767767   0.0000000), wk =   0.0416667
        k(   33) = (  -0.5000000   0.2357023   0.0000000), wk =   0.0416667
        k(   34) = (  -0.5000000   0.2946278   0.0000000), wk =   0.0416667
        k(   35) = (  -0.5000000  -0.3535534   0.0000000), wk =   0.0208333

     Initial potential from superposition of free atoms

     starting charge     307.9969, renormalised to     308.0000
     Starting wfcs are  252 randomized atomic wfcs
     Checking if some PAW data can be deallocated...

     Self-consistent Calculation

     iteration #  1     ecut=    50.00 Ry     beta= 0.10
     Davidson diagonalization with overlap
     ethr =  1.00E-02,  avg # of iterations =  4.4

     total energy              =  -21681.02822988 Ry
     estimated scf accuracy    <      37.47825060 Ry

[...]

     iteration #  7     ecut=    50.00 Ry     beta= 0.10
     Davidson diagonalization with overlap
     c_bands:  2 eigenvalues not converged
     c_bands:  2 eigenvalues not converged
     c_bands:  1 eigenvalues not converged
     c_bands:  1 eigenvalues not converged
     c_bands:  3 eigenvalues not converged
     ethr =  3.60E-05,  avg # of iterations = 14.1

[...]

     iteration # 11     ecut=    50.00 Ry     beta= 0.10
     Davidson diagonalization with overlap
     c_bands:  2 eigenvalues not converged
     c_bands:  2 eigenvalues not converged
     c_bands:  2 eigenvalues not converged
     c_bands:  1 eigenvalues not converged
     c_bands:  1 eigenvalues not converged
     c_bands:  1 eigenvalues not converged
     c_bands:  1 eigenvalues not converged
     c_bands:  1 eigenvalues not converged
     ethr =  1.56E-06,  avg # of iterations = 12.0

[...]

     total energy              =  -21687.07459459 Ry
     estimated scf accuracy    <       0.00000185 Ry

     iteration # 20     ecut=    50.00 Ry     beta= 0.10
     Davidson diagonalization with overlap
     ethr =  6.01E-10,  avg # of iterations =  4.4

     End of self-consistent calculation

          k = 0.0000 0.0000 0.0000 ( 17807 PWs)   bands (ev):

    -0.3175   0.2647   0.2790   0.2791   0.5631   0.5632   0.7655   1.3703
     1.4295   1.8382   2.3570   2.3571   3.5907   4.4128   5.0491   5.0492
     6.0727   6.3559   6.3559   6.5475   8.4316   8.4804   8.9153   9.7485
     9.7851  10.4221  10.7710  10.7711  10.8738  10.9280  10.9280  11.0180
    11.1865  11.2386  11.2386  11.3215  11.3216  11.4251  11.4698  11.4698
    11.5320  11.5753  11.6191  11.6445  11.6445  11.7126  11.7126  11.8041
    11.9045  11.9883  12.0057  12.0057  12.0449  12.0449  12.0880  12.0880
    12.1374  12.3107  12.3107  12.3181  12.3792  12.3792  12.6212  12.7025
    12.7683  12.7701  12.7701  12.7847  12.8905  12.9406  12.9567  12.9567
    13.1450  13.1450  13.1783  13.3047  13.3432  13.3678  13.4010  13.4153
    13.5074  13.5278  13.6671  13.6696  13.7513  13.7532  13.8853  13.9448
    14.1054  14.1054  14.2099  14.3364  14.3385  14.3433  14.3901  14.3901
    14.4117  14.4925  14.5441  14.5441  14.7166  14.7185  14.7359  14.7978
    14.7978  14.9058  14.9114  14.9227  14.9227  14.9666  14.9709  15.0498
    15.1587  15.2419  15.2420  15.2650  15.3113  15.3114  15.3260  15.5551
    15.5959  15.6650  15.6651  15.6699  15.6699  15.8354  15.9333  15.9566
    15.9881  15.9881  16.0575  16.0576  16.0854  16.0855  16.2345  16.3294
    16.3294  16.3985  16.3986  16.4377  16.6406  17.0077  17.0077  17.0592
    17.0593  17.0716  17.1227  17.1630  17.6068  17.6068  17.8239  17.9455
    17.9455  18.0409  18.0957  18.0957  18.4393  18.4393  18.8696  18.8696
    19.9631  20.2125  20.3463  20.6386  21.2055  21.6009  21.6010  22.4396
    22.8454  22.9240  22.9241  23.1564  23.2488  23.7408  24.2987  24.7982
    24.7982  24.9743  24.9743  25.0719  25.0719  25.4068  25.7247  25.7516
    25.8983

[...]

          k = 0.3750-0.3536 0.0000 ( 17776 PWs)   bands (ev):

[...]

          k =-0.5000 0.0000 0.0000 ( 17814 PWs)   bands (ev):

[...]

          k =-0.5000-0.3536 0.0000 ( 17712 PWs)   bands (ev):

     0.0324   0.0324   0.0324   0.0324   1.1318   1.1318   1.1318   1.1318
     1.8884   1.8884   1.8884   1.8884   4.7090   4.7090   4.7091   4.7091
     6.6434   6.6434   6.6434   6.6434   9.8010   9.8010   9.8010   9.8010
    10.9754  10.9754  10.9754  10.9754  11.2798  11.2798  11.2798  11.2798
    11.5623  11.5623  11.5623  11.5623  11.6751  11.6751  11.6751  11.6751
    11.9034  11.9034  11.9034  11.9034  11.9802  11.9802  11.9803  11.9803
    12.0903  12.0903  12.0903  12.0903  12.6481  12.6481  12.6481  12.6481
    12.8243  12.8243  12.8243  12.8243  12.9425  12.9425  12.9425  12.9425
    13.0101  13.0101  13.0101  13.0101  13.1396  13.1396  13.1396  13.1396
    13.1913  13.1913  13.1913  13.1913  13.2916  13.2916  13.2916  13.2916
    13.3570  13.3570  13.3570  13.3570  13.4894  13.4894  13.4894  13.4894
    13.6425  13.6425  13.6425  13.6425  13.7698  13.7698  13.7698  13.7698
    13.8358  13.8358  13.8358  13.8358  14.0518  14.0518  14.0518  14.0518
    14.2674  14.2674  14.2674  14.2674  14.3223  14.3223  14.3224  14.3224
    14.4214  14.4214  14.4214  14.4214  14.8027  14.8027  14.8027  14.8027
    15.0211  15.0211  15.0212  15.0212  15.1352  15.1352  15.1352  15.1352
    15.7086  15.7086  15.7086  15.7086  15.8358  15.8358  15.8358  15.8358
    15.9970  15.9970  15.9970  15.9970  16.4392  16.4392  16.4393  16.4393
    16.9652  16.9652  16.9653  16.9653  17.4566  17.4566  17.4566  17.4566
    18.0824  18.0824  18.0824  18.0825  18.5148  18.5148  18.5149  18.5149
    19.8250  19.8250  19.8250  19.8250  20.2177  20.2177  20.2178  20.2178
    23.0947  23.0947  23.0947  23.0947  23.4197  23.4197  23.4198  23.4198
    23.7698  23.7698  23.7698  23.7698  26.3763  26.3767  26.3767  26.3770
    26.5202

     the Fermi energy is    18.1425 ev

!    total energy              =  -21687.07459496 Ry

     total all-electron energy =  -1064654.765144 Ry
     estimated scf accuracy    <       0.00000077 Ry
     smearing contrib. (-TS)   =      -0.02362920 Ry
     internal energy E=F+TS    =  -21687.05096576 Ry

     The total energy is F=E-TS. E is the sum of the following terms:
     one-electron contribution =      67.19404515 Ry
     hartree contribution      =     387.03482174 Ry
     xc contribution           =    -907.29128174 Ry
     ewald contribution        =   -1840.21568050 Ry
     one-center paw contrib.   =  -19393.77287040 Ry

     convergence has been achieved in  20 iterations

     Forces acting on atoms (cartesian axes, Ry/au):

     atom    1 type  1   force =     0.00000000   -0.00000443    7.61995537
     atom    2 type  1   force =     0.00000000    0.00000443    7.61995537
     atom    3 type  1   force =     0.00000000    0.00000000    7.71488416
     atom    4 type  1   force =     0.00000000    0.00000000    7.71489598
     atom    5 type  1   force =     0.00000000    0.00000553    0.02720784
     atom    6 type  1   force =     0.00000000   -0.00000553    0.02720784
     atom    7 type  1   force =     0.00000000    0.00000000   -0.00154858
     atom    8 type  1   force =     0.00000000    0.00000000   -0.00155134
     atom    9 type  1   force =     0.00000000    0.00000340    0.00197390
     atom   10 type  1   force =     0.00000000   -0.00000340    0.00197390
     atom   11 type  1   force =     0.00000000    0.00000000   -0.00088033
     atom   12 type  1   force =     0.00000000    0.00000000   -0.00088251
     atom   13 type  1   force =     0.00000000   -0.00000124    0.00164201
     atom   14 type  1   force =     0.00000000    0.00000124    0.00164201
     atom   15 type  1   force =     0.00000000    0.00000000   -0.00169008
     atom   16 type  1   force =     0.00000000    0.00000000   -0.00168418
     atom   17 type  1   force =     0.00000000    0.00000220    0.00084992
     atom   18 type  1   force =     0.00000000   -0.00000220    0.00084992
     atom   19 type  1   force =     0.00000000    0.00000000   -0.00199658
     atom   20 type  1   force =     0.00000000    0.00000000   -0.00199120
     atom   21 type  1   force =     0.00000000    0.00000485    0.00153741
     atom   22 type  1   force =     0.00000000   -0.00000485    0.00153741
     atom   23 type  1   force =     0.00000000    0.00000000   -0.02719171
     atom   24 type  1   force =     0.00000000    0.00000000   -0.02719852
     atom   25 type  1   force =     0.00000000   -0.00000650   -7.71488663
     atom   26 type  1   force =     0.00000000    0.00000650   -7.71488663
     atom   27 type  1   force =     0.00000000    0.00000000   -7.61986535
     atom   28 type  1   force =     0.00000000    0.00000000   -7.61985941

     Total force =    21.687163     Total SCF correction =     0.002493

     Writing all to output data dir ./pwscf.save/

     General routines

     Parallel routines

   This run was terminated on:   8:11:45   2Mar2024

   JOB DONE.