     Program PWSCF v.7.0 starts on  9Mar2024 at  9:22:36

     R & G space division:  proc/nbgrp/npool/nimage =      10

     Reading input from GSF110R_0.4.in
Warning: card &CELL ignored
Warning: card / ignored

     Current dimensions of program PWSCF are:
     Max number of different atomic species (ntypx) = 10
     Max number of k-points (npk) =  40000
     Max angular momentum in pseudopotentials (lmaxx) =  4
     file Au.pbe-n-kjpaw_psl.1.0.0.UPF: wavefunction(s)  6S 5D renormalized
     Found identity + (  0.0000 -0.5000  0.0000) symmetry
     This is a supercell, fractional translations are disabled

     Using Slab Decomposition

     bravais-lattice index     =            0
     lattice parameter (alat)  =       7.7101  a.u.
     unit-cell volume          =    2979.1368 (a.u.)^3
     number of atoms/cell      =           28
     number of atomic types    =            1
     number of electrons       =       308.00
     number of Kohn-Sham states=          185
     kinetic-energy cutoff     =      50.0000  Ry
     charge density cutoff     =     300.0000  Ry
     scf convergence threshold =      1.0E-06
     mixing beta               =       0.0080
     number of iterations used =            8  plain     mixing
     energy convergence thresh.=      1.0E-04
     force convergence thresh. =      1.0E-03
     Exchange-correlation= SLA  PW   PBX  PBC
                           (   1   4   3   4   0   0   0)
     nstep                     =           50

     celldm(1)=   7.710083  celldm(2)=   0.000000  celldm(3)=   0.000000
     celldm(4)=   0.000000  celldm(5)=   0.000000  celldm(6)=   0.000000

     crystal axes: (cart. coord. in units of alat)
               a(1) = (   1.000000   0.000000   0.000000 )
               a(2) = (   0.000000   1.414214   0.000000 )
               a(3) = (   0.000000   0.000000   4.596194 )

     reciprocal axes: (cart. coord. in units 2 pi/alat)
               b(1) = (  1.000000  0.000000  0.000000 )
               b(2) = (  0.000000  0.707107  0.000000 )
               b(3) = (  0.000000  0.000000  0.217571 )

     PseudoPot. # 1 for Au read from file:
     ./Au.pbe-n-kjpaw_psl.1.0.0.UPF
     MD5 check sum: 4db85c736373c707a97ce4c36c2a9d23
     Pseudo is Projector augmented-wave + core cor, Zval = 11.0
     Generated using &quot;atomic&quot; code by A. Dal Corso  v.6.3
     Shape of augmentation charge: PSQ
     Using radial grid of 1279 points,  6 beta functions with:
                l(1) =   0
                l(2) =   0
                l(3) =   1
                l(4) =   1
                l(5) =   2
                l(6) =   2
     Q(r) pseudized with 0 coefficients

     atomic species   valence    mass     pseudopotential
        Au            11.00   196.96657     Au( 1.00)

     No symmetry found

   Cartesian axes

     site n.     atom                  positions (alat units)
         1           Au  tau(   1) = (   0.5000000   0.3535534   0.0000000  )
         2           Au  tau(   2) = (   0.5000000   1.0606602   0.0000000  )
         3           Au  tau(   3) = (   0.0000000   0.0000000   0.3535534  )
         4           Au  tau(   4) = (   0.0000000   0.7071068   0.3535534  )
         5           Au  tau(   5) = (   0.5000000   0.3535534   0.7071068  )
         6           Au  tau(   6) = (   0.5000000   1.0606602   0.7071068  )
         7           Au  tau(   7) = (   0.0000000   0.0000000   1.0606602  )
         8           Au  tau(   8) = (   0.0000000   0.7071068   1.0606602  )
         9           Au  tau(   9) = (   0.5000000   0.3535534   1.4142136  )
        10           Au  tau(  10) = (   0.5000000   1.0606602   1.4142136  )
        11           Au  tau(  11) = (   0.0000000   0.0000000   1.7677670  )
        12           Au  tau(  12) = (   0.0000000   0.7071068   1.7677670  )
        13           Au  tau(  13) = (   0.5000000   0.3535534   2.1213203  )
        14           Au  tau(  14) = (   0.5000000   1.0606602   2.1213203  )
        15           Au  tau(  15) = (   0.0000000   0.0000000   2.4748737  )
        16           Au  tau(  16) = (   0.0000000   0.7071068   2.4748737  )
        17           Au  tau(  17) = (   0.9000000   0.3535534   2.8284271  )
        18           Au  tau(  18) = (   0.9000000   1.0606602   2.8284271  )
        19           Au  tau(  19) = (   0.4000000   0.0000000   3.1819805  )
        20           Au  tau(  20) = (   0.4000000   0.7071068   3.1819805  )
        21           Au  tau(  21) = (   0.9000000   0.3535534   3.5355339  )
        22           Au  tau(  22) = (   0.9000000   1.0606602   3.5355339  )
        23           Au  tau(  23) = (   0.4000000   0.0000000   3.8890873  )
        24           Au  tau(  24) = (   0.4000000   0.7071068   3.8890873  )
        25           Au  tau(  25) = (   0.9000000   0.3535534   4.2426407  )
        26           Au  tau(  26) = (   0.9000000   1.0606602   4.2426407  )
        27           Au  tau(  27) = (   0.4000000   0.0000000   4.5961941  )
        28           Au  tau(  28) = (   0.4000000   0.7071068   4.5961941  )

     number of k points=    50  Gaussian smearing, width (Ry)=  0.0080
                       cart. coord. in units 2pi/alat
        k(    1) = (   0.0000000   0.0000000   0.0000000), wk =   0.0208333
        k(    2) = (   0.0000000   0.0589256   0.0000000), wk =   0.0416667
        k(    3) = (   0.0000000   0.1178511   0.0000000), wk =   0.0416667
        k(    4) = (   0.0000000   0.1767767   0.0000000), wk =   0.0416667
        k(    5) = (   0.0000000   0.2357023   0.0000000), wk =   0.0416667
        k(    6) = (   0.0000000   0.2946278   0.0000000), wk =   0.0416667
        k(    7) = (   0.0000000  -0.3535534   0.0000000), wk =   0.0208333
        k(    8) = (   0.1250000   0.0000000   0.0000000), wk =   0.0416667
        k(    9) = (   0.1250000   0.0589256   0.0000000), wk =   0.0416667
        k(   10) = (   0.1250000   0.1178511   0.0000000), wk =   0.0416667
        k(   11) = (   0.1250000   0.1767767   0.0000000), wk =   0.0416667
        k(   12) = (   0.1250000   0.2357023   0.0000000), wk =   0.0416667
        k(   13) = (   0.1250000   0.2946278   0.0000000), wk =   0.0416667
        k(   14) = (   0.1250000  -0.3535534   0.0000000), wk =   0.0416667
        k(   15) = (   0.1250000  -0.2946278   0.0000000), wk =   0.0416667
        k(   16) = (   0.1250000  -0.2357023   0.0000000), wk =   0.0416667
        k(   17) = (   0.1250000  -0.1767767   0.0000000), wk =   0.0416667
        k(   18) = (   0.1250000  -0.1178511   0.0000000), wk =   0.0416667
        k(   19) = (   0.1250000  -0.0589256   0.0000000), wk =   0.0416667
        k(   20) = (   0.2500000   0.0000000   0.0000000), wk =   0.0416667
        k(   21) = (   0.2500000   0.0589256   0.0000000), wk =   0.0416667
        k(   22) = (   0.2500000   0.1178511   0.0000000), wk =   0.0416667
        k(   23) = (   0.2500000   0.1767767   0.0000000), wk =   0.0416667
        k(   24) = (   0.2500000   0.2357023   0.0000000), wk =   0.0416667
        k(   25) = (   0.2500000   0.2946278   0.0000000), wk =   0.0416667
        k(   26) = (   0.2500000  -0.3535534   0.0000000), wk =   0.0416667
        k(   27) = (   0.2500000  -0.2946278   0.0000000), wk =   0.0416667
        k(   28) = (   0.2500000  -0.2357023   0.0000000), wk =   0.0416667
        k(   29) = (   0.2500000  -0.1767767   0.0000000), wk =   0.0416667
        k(   30) = (   0.2500000  -0.1178511   0.0000000), wk =   0.0416667
        k(   31) = (   0.2500000  -0.0589256   0.0000000), wk =   0.0416667
        k(   32) = (   0.3750000   0.0000000   0.0000000), wk =   0.0416667
        k(   33) = (   0.3750000   0.0589256   0.0000000), wk =   0.0416667
        k(   34) = (   0.3750000   0.1178511   0.0000000), wk =   0.0416667
        k(   35) = (   0.3750000   0.1767767   0.0000000), wk =   0.0416667
        k(   36) = (   0.3750000   0.2357023   0.0000000), wk =   0.0416667
        k(   37) = (   0.3750000   0.2946278   0.0000000), wk =   0.0416667
        k(   38) = (   0.3750000  -0.3535534   0.0000000), wk =   0.0416667
        k(   39) = (   0.3750000  -0.2946278   0.0000000), wk =   0.0416667
        k(   40) = (   0.3750000  -0.2357023   0.0000000), wk =   0.0416667
        k(   41) = (   0.3750000  -0.1767767   0.0000000), wk =   0.0416667
        k(   42) = (   0.3750000  -0.1178511   0.0000000), wk =   0.0416667
        k(   43) = (   0.3750000  -0.0589256   0.0000000), wk =   0.0416667
        k(   44) = (  -0.5000000   0.0000000   0.0000000), wk =   0.0208333
        k(   45) = (  -0.5000000   0.0589256   0.0000000), wk =   0.0416667
        k(   46) = (  -0.5000000   0.1178511   0.0000000), wk =   0.0416667
        k(   47) = (  -0.5000000   0.1767767   0.0000000), wk =   0.0416667
        k(   48) = (  -0.5000000   0.2357023   0.0000000), wk =   0.0416667
        k(   49) = (  -0.5000000   0.2946278   0.0000000), wk =   0.0416667
        k(   50) = (  -0.5000000  -0.3535534   0.0000000), wk =   0.0208333

     Initial potential from superposition of free atoms

     starting charge     307.9969, renormalised to     308.0000
     Starting wfcs are  252 randomized atomic wfcs
     Checking if some PAW data can be deallocated...

     Self-consistent Calculation

     iteration #  1     ecut=    50.00 Ry     beta= 0.01
     Davidson diagonalization with overlap
     ethr =  1.00E-02,  avg # of iterations =  4.2

     total energy              =  -21689.31296818 Ry
     estimated scf accuracy    <      19.63976278 Ry

[...]

     iteration # 15     ecut=    50.00 Ry     beta= 0.01
     Davidson diagonalization with overlap
     c_bands:  1 eigenvalues not converged
     ethr =  7.19E-05,  avg # of iterations =  8.5

[...]

     negative rho (up, down):  3.872E-04 0.000E+00

[...]

     iteration # 30     ecut=    50.00 Ry     beta= 0.01
     Davidson diagonalization with overlap
     c_bands:  1 eigenvalues not converged
     ethr =  1.11E-06,  avg # of iterations =  1.8

[...]

     total energy              =  -21688.81740060 Ry
     estimated scf accuracy    <       0.00000367 Ry

     iteration # 61     ecut=    50.00 Ry     beta= 0.01
     Davidson diagonalization with overlap
     ethr =  1.19E-09,  avg # of iterations =  1.8

[...]

     End of self-consistent calculation

          k = 0.0000 0.0000 0.0000 ( 17807 PWs)   bands (ev):

    -7.1970  -5.8687  -5.8685  -4.5674  -3.4174  -0.3479  -0.3477   2.2099
     2.6773   4.3611   5.0682   5.0694   5.5865   7.4795   7.4810   7.6098
     8.0117   8.1269   8.1413   9.1394   9.1400   9.2275   9.3493   9.5829
    10.0318  10.0394  10.1372  10.3435  10.3444  10.4622  10.5294  10.5328
    10.6485  10.9870  11.0506  11.1206  11.1424  11.2020  11.2885  11.2900
    11.3313  11.3546  11.4562  11.5242  11.5342  11.6832  11.6963  11.7089
    11.7937  11.8597  11.8671  11.8801  11.9833  12.0120  12.0636  12.1283
    12.1304  12.2295  12.3143  12.3356  12.3758  12.4275  12.4692  12.5964
    12.6429  12.6433  12.7106  12.7830  12.8008  12.8248  12.8742  13.0165
    13.0675  13.1108  13.1338  13.1832  13.2079  13.2727  13.3428  13.4155
    13.4413  13.4939  13.5622  13.5655  13.6213  13.6622  13.6699  13.7814
    13.8088  13.8466  13.8766  13.9439  14.0197  14.0537  14.0891  14.2697
    14.2984  14.3535  14.3947  14.4175  14.5411  14.6772  14.7205  14.7452
    14.7717  14.7895  14.8039  14.8400  14.8688  14.8967  14.9546  14.9728
    15.0295  15.0876  15.0927  15.1587  15.1697  15.2464  15.3024  15.4198
    15.4634  15.4802  15.5878  15.5881  15.6173  15.7300  15.7670  15.7884
    15.8182  15.8378  15.8799  15.9717  16.0000  16.0617  16.0993  16.1382
    16.1856  16.2467  16.3018  16.3028  16.3901  16.5144  16.6474  16.6611
    17.0008  17.4924  17.5112  17.8802  17.9041  17.9221  18.1088  18.1960
    18.2194  18.3456  18.4210  18.6436  18.8509  18.9473  18.9739  19.2871
    19.2939  19.6258  20.0909  20.3763  21.0632  21.1572  21.1572  21.6685
    22.7024  23.1078  23.5066  24.1054  24.2662  24.3524  24.3948  24.4651
    24.4914  24.6665  25.0208  25.0744  25.5441  25.7668  26.0226  26.0922
    26.1600

[...]

          k = 0.3750-0.0589 0.0000 ( 17796 PWs)   bands (ev):

[...]

          k =-0.5000 0.0000 0.0000 ( 17814 PWs)   bands (ev):

[...]

          k =-0.5000-0.3536 0.0000 ( 17712 PWs)   bands (ev):

    -7.8256  -7.8256  -5.2585  -5.2585   0.1477   0.1477   1.9557   1.9557
     3.5337   3.5337   5.0331   5.0331   6.2961   6.2961   8.3826   8.3826
     9.0337   9.0337   9.2992   9.2992   9.3191   9.3191   9.6299   9.6299
     9.9926   9.9926  10.2216  10.2216  10.7759  10.7759  10.7977  10.7977
    11.2594  11.2594  11.3266  11.3266  11.5027  11.5027  11.6577  11.6577
    11.7400  11.7400  11.8468  11.8468  11.9943  11.9943  12.1532  12.1532
    12.1726  12.1726  12.3242  12.3242  12.3766  12.3766  12.4509  12.4509
    12.5407  12.5407  12.5489  12.5489  12.6761  12.6761  12.6977  12.6977
    12.7916  12.7916  12.9649  12.9649  12.9784  12.9784  13.0107  13.0107
    13.0442  13.0442  13.0851  13.0851  13.1781  13.1781  13.1857  13.1857
    13.3205  13.3205  13.3537  13.3537  13.4262  13.4262  13.4831  13.4831
    13.6414  13.6414  13.6537  13.6537  13.7230  13.7230  13.7676  13.7676
    13.8437  13.8437  13.9840  13.9840  14.0040  14.0040  14.0410  14.0410
    14.2514  14.2514  14.3047  14.3047  14.3303  14.3303  14.3532  14.3532
    14.4651  14.4651  14.5623  14.5623  14.7722  14.7722  14.8275  14.8276
    14.9475  14.9475  15.0461  15.0461  15.1216  15.1216  15.3456  15.3456
    15.3916  15.3916  15.6132  15.6132  15.7203  15.7203  15.7705  15.7705
    15.8325  15.8325  16.2021  16.2021  16.2780  16.2780  16.3531  16.3531
    16.4530  16.4530  16.9133  16.9133  17.0829  17.0829  17.6095  17.6095
    17.7724  17.7724  17.9572  17.9572  18.1866  18.1866  19.1410  19.1410
    19.6194  19.6194  19.7599  19.7599  20.0004  20.0004  20.0873  20.0873
    22.6631  22.6631  22.8152  22.8152  23.3071  23.3071  23.4483  23.4483
    24.4907  24.4907  25.6266  25.6266  26.1005  26.1006  26.1316  26.1322
    26.3340

     the Fermi energy is    18.3203 ev

!    total energy              =  -21688.81892954 Ry

     total all-electron energy =  -1064656.509479 Ry
     estimated scf accuracy    <       0.00000096 Ry
     smearing contrib. (-TS)   =      -0.00354310 Ry
     internal energy E=F+TS    =  -21688.81538644 Ry

     The total energy is F=E-TS. E is the sum of the following terms:
     one-electron contribution =      30.02914781 Ry
     hartree contribution      =     405.24512201 Ry
     xc contribution           =    -908.01599759 Ry
     ewald contribution        =   -1822.16105054 Ry
     one-center paw contrib.   =  -19393.91260814 Ry

     convergence has been achieved in  61 iterations

     negative rho (up, down):  1.561E-03 0.000E+00

     Forces acting on atoms (cartesian axes, Ry/au):

     atom    1 type  1   force =     3.01956019    0.00000153    0.24004414
     atom    2 type  1   force =     3.01956301   -0.00000216    0.24003562
     atom    3 type  1   force =    -0.34975004    0.00001167    0.42660725
     atom    4 type  1   force =    -0.34976251   -0.00000944    0.42660273
     atom    5 type  1   force =     0.01679075   -0.00000440    0.05113130
     atom    6 type  1   force =     0.01678992    0.00000906    0.05112904
     atom    7 type  1   force =     0.00004588    0.00000038    0.00977674
     atom    8 type  1   force =     0.00004614    0.00000219    0.00977452
     atom    9 type  1   force =    -0.00055460    0.00000228    0.00209000
     atom   10 type  1   force =    -0.00055388   -0.00000076    0.00210449
     atom   11 type  1   force =    -0.00035998   -0.00001439   -0.00371597
     atom   12 type  1   force =    -0.00035910    0.00001144   -0.00371645
     atom   13 type  1   force =    -0.00881300   -0.00000168   -0.00296039
     atom   14 type  1   force =    -0.00881850    0.00000085   -0.00295557
     atom   15 type  1   force =     0.28956515   -0.00001072   -0.97008344
     atom   16 type  1   force =     0.28956048    0.00000916   -0.97007486
     atom   17 type  1   force =    -0.28869732   -0.00000435    0.97031333
     atom   18 type  1   force =    -0.28869437    0.00000385    0.97029797
     atom   19 type  1   force =     0.01020072   -0.00000161   -0.00079711
     atom   20 type  1   force =     0.01020493    0.00000096   -0.00079492
     atom   21 type  1   force =     0.00014649   -0.00000109   -0.00574394
     atom   22 type  1   force =     0.00014454   -0.00000070   -0.00573221
     atom   23 type  1   force =    -0.01681982   -0.00000034   -0.05015761
     atom   24 type  1   force =    -0.01681771   -0.00000036   -0.05015956
     atom   25 type  1   force =     0.34879400    0.00000527   -0.42732521
     atom   26 type  1   force =     0.34880292   -0.00000655   -0.42731491
     atom   27 type  1   force =    -3.02010969    0.00000203   -0.23918743
     atom   28 type  1   force =    -3.02010461   -0.00000211   -0.23918753

     Total force =     2.175894     Total SCF correction =     0.003219
     Message from routine bfgs:
     history already reset at previous step: exiting
     Energy error            =      5.1E+00 Ry
     Gradient error          =      9.7E-01 Ry/Bohr

     bfgs converged in   5 scf cycles and   2 bfgs steps
     (criteria: energy <  1.0E-04 Ry, force <  1.0E-03 Ry/Bohr)

     End of BFGS Geometry Optimization

     Final energy             =  -21688.8189295418 Ry

     File ./pwscf.bfgs deleted, as requested
Begin final coordinates

ATOMIC_POSITIONS (angstrom)
Au            2.0400000000        1.4424978336        0.0000000000    0   0   1
Au            2.0400000000        4.3274935009        0.0000000000    0   0   1
Au            0.0000000000        0.0000000000        1.4424978336    0   0   1
Au            0.0000000000        2.8849956672        1.4424978336    0   0   1
Au            2.0400000000        1.4424978336        2.8849956672    0   0   1
Au            2.0400000000        4.3274935009        2.8849956672    0   0   1
Au            0.0000000000        0.0000000000        4.3274935009    0   0   1
Au            0.0000000000        2.8849956672        4.3274935009    0   0   1
Au            2.0400000000        1.4424978336        5.7699913345    0   0   1
Au            2.0400000000        4.3274935009        5.7699913345    0   0   1
Au            0.0000000000        0.0000000000        7.2124891681    0   0   1
Au            0.0000000000        2.8849956672        7.2124891681    0   0   1
Au            2.0400000000        1.4424978336        8.6549870017    0   0   1
Au            2.0400000000        4.3274935009        8.6549870017    0   0   1
Au            0.0000000000        0.0000000000       10.0974848353    0   0   1
Au            0.0000000000        2.8849956672       10.0974848353    0   0   1
Au            3.6720000000        1.4424978336       11.5399826690    0   0   1
Au            3.6720000000        4.3274935009       11.5399826690    0   0   1
Au            1.6320000000        0.0000000000       12.9824805026    0   0   1
Au            1.6320000000        2.8849956672       12.9824805026    0   0   1
Au            3.6720000000        1.4424978336       14.4249783362    0   0   1
Au            3.6720000000        4.3274935009       14.4249783362    0   0   1
Au            1.6320000000        0.0000000000       15.8674761698    0   0   1
Au            1.6320000000        2.8849956672       15.8674761698    0   0   1
Au            3.6720000000        1.4424978336       17.3099740034    0   0   1
Au            3.6720000000        4.3274935009       17.3099740034    0   0   1
Au            1.6320000000        0.0000000000       18.7524718371    0   0   1
Au            1.6320000000        2.8849956672       18.7524718371    0   0   1
End final coordinates

     Writing all to output data dir ./pwscf.save/

     General routines

     Parallel routines

   This run was terminated on:  10: 7:35   9Mar2024

   JOB DONE.