     Program PWSCF v.7.0 starts on 18Mar2024 at 11:12:27

     R & G space division:  proc/nbgrp/npool/nimage =      10

     Reading input from GSF110R_0.0.in
Warning: card &CELL ignored
Warning: card / ignored

     Current dimensions of program PWSCF are:
     Max number of different atomic species (ntypx) = 10
     Max number of k-points (npk) =  40000
     Max angular momentum in pseudopotentials (lmaxx) =  4
     file Au.pbe-n-kjpaw_psl.1.0.0.UPF: wavefunction(s)  6S 5D renormalized
     Found identity + (  0.0000 -0.5000  0.0000) symmetry
     This is a supercell, fractional translations are disabled

     Using Slab Decomposition

     bravais-lattice index     =            0
     lattice parameter (alat)  =       7.7101  a.u.
     unit-cell volume          =    2979.1368 (a.u.)^3
     number of atoms/cell      =           28
     number of atomic types    =            1
     number of electrons       =       308.00
     number of Kohn-Sham states=          185
     kinetic-energy cutoff     =      50.0000  Ry
     charge density cutoff     =     250.0000  Ry
     scf convergence threshold =      1.0E-06
     mixing beta               =       0.1000
     number of iterations used =            8  plain     mixing
     energy convergence thresh.=      1.0E-04
     force convergence thresh. =      1.0E-03
     Exchange-correlation= SLA  PW   PBX  PBC
                           (   1   4   3   4   0   0   0)
     nstep                     =           50

     celldm(1)=   7.710083  celldm(2)=   0.000000  celldm(3)=   0.000000
     celldm(4)=   0.000000  celldm(5)=   0.000000  celldm(6)=   0.000000

     crystal axes: (cart. coord. in units of alat)
               a(1) = (   1.000000   0.000000   0.000000 )
               a(2) = (   0.000000   1.414214   0.000000 )
               a(3) = (   0.000000   0.000000   4.596194 )

     reciprocal axes: (cart. coord. in units 2 pi/alat)
               b(1) = (  1.000000  0.000000  0.000000 )
               b(2) = (  0.000000  0.707107  0.000000 )
               b(3) = (  0.000000  0.000000  0.217571 )

     PseudoPot. # 1 for Au read from file:
     ./Au.pbe-n-kjpaw_psl.1.0.0.UPF
     MD5 check sum: 4db85c736373c707a97ce4c36c2a9d23
     Pseudo is Projector augmented-wave + core cor, Zval = 11.0
     Generated using &quot;atomic&quot; code by A. Dal Corso  v.6.3
     Shape of augmentation charge: PSQ
     Using radial grid of 1279 points,  6 beta functions with:
                l(1) =   0
                l(2) =   0
                l(3) =   1
                l(4) =   1
                l(5) =   2
                l(6) =   2
     Q(r) pseudized with 0 coefficients

     atomic species   valence    mass     pseudopotential
        Au            11.00   196.96657     Au( 1.00)

     No symmetry found

   Cartesian axes

     site n.     atom                  positions (alat units)
         1           Au  tau(   1) = (   0.5000000   0.3535534   0.0000000  )
         2           Au  tau(   2) = (   0.5000000   1.0606602   0.0000000  )
         3           Au  tau(   3) = (   0.0000000   0.0000000   0.3535534  )
         4           Au  tau(   4) = (   0.0000000   0.7071068   0.3535534  )
         5           Au  tau(   5) = (   0.5000000   0.3535534   0.7071068  )
         6           Au  tau(   6) = (   0.5000000   1.0606602   0.7071068  )
         7           Au  tau(   7) = (   0.0000000   0.0000000   1.0606602  )
         8           Au  tau(   8) = (   0.0000000   0.7071068   1.0606602  )
         9           Au  tau(   9) = (   0.5000000   0.3535534   1.4142136  )
        10           Au  tau(  10) = (   0.5000000   1.0606602   1.4142136  )
        11           Au  tau(  11) = (   0.0000000   0.0000000   1.7677670  )
        12           Au  tau(  12) = (   0.0000000   0.7071068   1.7677670  )
        13           Au  tau(  13) = (   0.5000000   0.3535534   2.1213203  )
        14           Au  tau(  14) = (   0.5000000   1.0606602   2.1213203  )
        15           Au  tau(  15) = (   0.0000000   0.0000000   2.4748737  )
        16           Au  tau(  16) = (   0.0000000   0.7071068   2.4748737  )
        17           Au  tau(  17) = (   0.5000000   0.3535534   2.8284271  )
        18           Au  tau(  18) = (   0.5000000   1.0606602   2.8284271  )
        19           Au  tau(  19) = (   0.0000000   0.0000000   3.1819805  )
        20           Au  tau(  20) = (   0.0000000   0.7071068   3.1819805  )
        21           Au  tau(  21) = (   0.5000000   0.3535534   3.5355339  )
        22           Au  tau(  22) = (   0.5000000   1.0606602   3.5355339  )
        23           Au  tau(  23) = (   0.0000000   0.0000000   3.8890873  )
        24           Au  tau(  24) = (   0.0000000   0.7071068   3.8890873  )
        25           Au  tau(  25) = (   0.5000000   0.3535534   4.2426407  )
        26           Au  tau(  26) = (   0.5000000   1.0606602   4.2426407  )
        27           Au  tau(  27) = (   0.0000000   0.0000000   4.5961941  )
        28           Au  tau(  28) = (   0.0000000   0.7071068   4.5961941  )

     number of k points=    50  Gaussian smearing, width (Ry)=  0.2000
                       cart. coord. in units 2pi/alat
        k(    1) = (   0.0000000   0.0000000   0.0000000), wk =   0.0208333
        k(    2) = (   0.0000000   0.0589256   0.0000000), wk =   0.0416667
        k(    3) = (   0.0000000   0.1178511   0.0000000), wk =   0.0416667
        k(    4) = (   0.0000000   0.1767767   0.0000000), wk =   0.0416667
        k(    5) = (   0.0000000   0.2357023   0.0000000), wk =   0.0416667
        k(    6) = (   0.0000000   0.2946278   0.0000000), wk =   0.0416667
        k(    7) = (   0.0000000  -0.3535534   0.0000000), wk =   0.0208333
        k(    8) = (   0.1250000   0.0000000   0.0000000), wk =   0.0416667
        k(    9) = (   0.1250000   0.0589256   0.0000000), wk =   0.0416667
        k(   10) = (   0.1250000   0.1178511   0.0000000), wk =   0.0416667
        k(   11) = (   0.1250000   0.1767767   0.0000000), wk =   0.0416667
        k(   12) = (   0.1250000   0.2357023   0.0000000), wk =   0.0416667
        k(   13) = (   0.1250000   0.2946278   0.0000000), wk =   0.0416667
        k(   14) = (   0.1250000  -0.3535534   0.0000000), wk =   0.0416667
        k(   15) = (   0.1250000  -0.2946278   0.0000000), wk =   0.0416667
        k(   16) = (   0.1250000  -0.2357023   0.0000000), wk =   0.0416667
        k(   17) = (   0.1250000  -0.1767767   0.0000000), wk =   0.0416667
        k(   18) = (   0.1250000  -0.1178511   0.0000000), wk =   0.0416667
        k(   19) = (   0.1250000  -0.0589256   0.0000000), wk =   0.0416667
        k(   20) = (   0.2500000   0.0000000   0.0000000), wk =   0.0416667
        k(   21) = (   0.2500000   0.0589256   0.0000000), wk =   0.0416667
        k(   22) = (   0.2500000   0.1178511   0.0000000), wk =   0.0416667
        k(   23) = (   0.2500000   0.1767767   0.0000000), wk =   0.0416667
        k(   24) = (   0.2500000   0.2357023   0.0000000), wk =   0.0416667
        k(   25) = (   0.2500000   0.2946278   0.0000000), wk =   0.0416667
        k(   26) = (   0.2500000  -0.3535534   0.0000000), wk =   0.0416667
        k(   27) = (   0.2500000  -0.2946278   0.0000000), wk =   0.0416667
        k(   28) = (   0.2500000  -0.2357023   0.0000000), wk =   0.0416667
        k(   29) = (   0.2500000  -0.1767767   0.0000000), wk =   0.0416667
        k(   30) = (   0.2500000  -0.1178511   0.0000000), wk =   0.0416667
        k(   31) = (   0.2500000  -0.0589256   0.0000000), wk =   0.0416667
        k(   32) = (   0.3750000   0.0000000   0.0000000), wk =   0.0416667
        k(   33) = (   0.3750000   0.0589256   0.0000000), wk =   0.0416667
        k(   34) = (   0.3750000   0.1178511   0.0000000), wk =   0.0416667
        k(   35) = (   0.3750000   0.1767767   0.0000000), wk =   0.0416667
        k(   36) = (   0.3750000   0.2357023   0.0000000), wk =   0.0416667
        k(   37) = (   0.3750000   0.2946278   0.0000000), wk =   0.0416667
        k(   38) = (   0.3750000  -0.3535534   0.0000000), wk =   0.0416667
        k(   39) = (   0.3750000  -0.2946278   0.0000000), wk =   0.0416667
        k(   40) = (   0.3750000  -0.2357023   0.0000000), wk =   0.0416667
        k(   41) = (   0.3750000  -0.1767767   0.0000000), wk =   0.0416667
        k(   42) = (   0.3750000  -0.1178511   0.0000000), wk =   0.0416667
        k(   43) = (   0.3750000  -0.0589256   0.0000000), wk =   0.0416667
        k(   44) = (  -0.5000000   0.0000000   0.0000000), wk =   0.0208333
        k(   45) = (  -0.5000000   0.0589256   0.0000000), wk =   0.0416667
        k(   46) = (  -0.5000000   0.1178511   0.0000000), wk =   0.0416667
        k(   47) = (  -0.5000000   0.1767767   0.0000000), wk =   0.0416667
        k(   48) = (  -0.5000000   0.2357023   0.0000000), wk =   0.0416667
        k(   49) = (  -0.5000000   0.2946278   0.0000000), wk =   0.0416667
        k(   50) = (  -0.5000000  -0.3535534   0.0000000), wk =   0.0208333

     Initial potential from superposition of free atoms

     starting charge     307.9969, renormalised to     308.0000
     Starting wfcs are  252 randomized atomic wfcs
     Checking if some PAW data can be deallocated...

     Self-consistent Calculation

     iteration #  1     ecut=    50.00 Ry     beta= 0.10
     Davidson diagonalization with overlap
     ethr =  1.00E-02,  avg # of iterations =  4.5

     total energy              =  -21683.88364806 Ry
     estimated scf accuracy    <      30.32617482 Ry

[...]

     iteration #  7     ecut=    50.00 Ry     beta= 0.10
     Davidson diagonalization with overlap
     c_bands:  3 eigenvalues not converged
     ethr =  8.42E-05,  avg # of iterations =  3.9

[...]

     End of self-consistent calculation

          k = 0.0000 0.0000 0.0000 ( 17807 PWs)   bands (ev):

    -0.3859   0.1272   0.1272   0.1858   0.4887   0.4887   0.6052   1.2614
     1.2904   1.6991   2.2301   2.2301   3.5476   4.3749   5.0004   5.0004
     6.0035   6.2956   6.2957   6.4629   8.4183   8.4617   8.8059   9.7147
     9.7655  10.3265  10.6803  10.6803  10.8164  10.8514  10.8514  10.9461
    11.0867  11.1442  11.1442  11.2352  11.2352  11.3214  11.3523  11.3523
    11.4333  11.4913  11.5370  11.5386  11.5386  11.6296  11.6296  11.7089
    11.7856  11.9023  11.9288  11.9288  11.9403  11.9403  12.0246  12.0246
    12.0394  12.2129  12.2331  12.2331  12.2741  12.2741  12.5157  12.5985
    12.6542  12.6542  12.6742  12.6754  12.7703  12.8091  12.8394  12.8394
    13.0190  13.0190  13.0400  13.1883  13.2219  13.2306  13.2915  13.3276
    13.3655  13.3780  13.5278  13.5585  13.6186  13.6295  13.7765  13.8124
    13.9805  13.9805  14.1701  14.1873  14.1993  14.2146  14.2552  14.2552
    14.2613  14.3442  14.4211  14.4211  14.5596  14.5763  14.5905  14.6673
    14.6673  14.7380  14.7679  14.7679  14.7850  14.8044  14.8222  14.8951
    15.0148  15.0932  15.0932  15.1521  15.1640  15.1640  15.1724  15.4107
    15.4303  15.5109  15.5109  15.5141  15.5141  15.6913  15.7772  15.7793
    15.8203  15.8203  15.8988  15.8988  15.9187  15.9187  16.0696  16.1822
    16.1822  16.2202  16.2202  16.2631  16.4897  16.8784  16.8784  16.9253
[...]
     atom    7 type  1   force =     0.00000028    0.00000185    0.00051191
     atom    8 type  1   force =    -0.00000447   -0.00000196    0.00050572
     atom    9 type  1   force =     0.00000074    0.00000020    0.00131553
     atom   10 type  1   force =     0.00000249    0.00000077    0.00131567
     atom   11 type  1   force =    -0.00000147    0.00000265   -0.00013234
     atom   12 type  1   force =    -0.00000061    0.00000026   -0.00013088
     atom   13 type  1   force =    -0.00000078   -0.00000014    0.00014857
     atom   14 type  1   force =     0.00000143   -0.00000286    0.00015066
     atom   15 type  1   force =     0.00000047   -0.00000042   -0.00019082
     atom   16 type  1   force =    -0.00000091    0.00000129   -0.00019264
     atom   17 type  1   force =     0.00000060    0.00000024    0.00010462
     atom   18 type  1   force =    -0.00000050   -0.00000001    0.00010414
     atom   19 type  1   force =    -0.00000031    0.00000071   -0.00133996
     atom   20 type  1   force =    -0.00000016   -0.00000032   -0.00133984
     atom   21 type  1   force =    -0.00000009    0.00000157   -0.00051758
     atom   22 type  1   force =    -0.00000022   -0.00000268   -0.00051898
     atom   23 type  1   force =     0.00000483    0.00000164   -0.03135263
     atom   24 type  1   force =     0.00000213   -0.00000401   -0.03136164
     atom   25 type  1   force =    -0.00000177   -0.00001076   -7.70950551
     atom   26 type  1   force =    -0.00000492    0.00000927   -7.70949239
     atom   27 type  1   force =     0.00000233    0.00000104   -7.58325594
     atom   28 type  1   force =     0.00000270   -0.00000242   -7.58323620

     Total force =    21.628094     Total SCF correction =     0.001696

     BFGS Geometry Optimization
     Energy error            =      0.0E+00 Ry
     Gradient error          =      7.7E+00 Ry/Bohr

     number of scf cycles    =   1
     number of bfgs steps    =   0

     energy             new  =  -21688.5438922401 Ry

     new trust radius        =       0.5000000000 bohr
     new conv_thr            =       0.0000010000 Ry

ATOMIC_POSITIONS (angstrom)
Au            2.0400000000        1.4424978336        0.2602572204    0   0   1
Au            2.0400000000        4.3274935009        0.2602569578    0   0   1
Au            0.0000000000        0.0000000000        1.7070857468    0   0   1
Au            0.0000000000        2.8849956672        1.7070864391    0   0   1
Au            2.0400000000        1.4424978336        2.8860725675    0   0   1
Au            2.0400000000        4.3274935009        2.8860725074    0   0   1
Au            0.0000000000        0.0000000000        4.3275110695    0   0   1
Au            0.0000000000        2.8849956672        4.3275108572    0   0   1
Au            2.0400000000        1.4424978336        5.7700364832    0   0   1
Au            2.0400000000        4.3274935009        5.7700364878    0   0   1
Au            0.0000000000        0.0000000000        7.2124846261    0   0   1
Au            0.0000000000        2.8849956672        7.2124846763    0   0   1
Au            2.0400000000        1.4424978336        8.6549921007    0   0   1
Au            2.0400000000        4.3274935009        8.6549921722    0   0   1
Au            0.0000000000        0.0000000000       10.0974782865    0   0   1
Au            0.0000000000        2.8849956672       10.0974782240    0   0   1
Au            2.0400000000        1.4424978336       11.5399862595    0   0   1
Au            2.0400000000        4.3274935009       11.5399862430    0   0   1
Au            0.0000000000        0.0000000000       12.9824345154    0   0   1
Au            0.0000000000        2.8849956672       12.9824345195    0   0   1
Au            2.0400000000        1.4424978336       14.4249605729    0   0   1
Au            2.0400000000        4.3274935009       14.4249605248    0   0   1
Au            0.0000000000        0.0000000000       15.8664001567    0   0   1
Au            0.0000000000        2.8849956672       15.8663998475    0   0   1
Au            2.0400000000        1.4424978336       17.0453860414    0   0   1
Au            2.0400000000        4.3274935009       17.0453864916    0   0   1
Au            0.0000000000        0.0000000000       18.4922167233    0   0   1
Au            0.0000000000        2.8849956672       18.4922174007    0   0   1

     Writing config-only to output data dir ./pwscf.save/
     NEW-OLD atomic charge density approx. for the potential

[...]

     Total force =     3.176143     Total SCF correction =     0.002509
     Energy error            =      1.4E+01 Ry
     Gradient error          =      1.1E+00 Ry/Bohr

[...]

     energy             old  =  -21688.5438922401 Ry
     energy             new  =  -21702.8007376180 Ry

     CASE: energy            _new < energy            _old

[...]

     iteration #  2     ecut=    50.00 Ry     beta= 0.10
     Davidson diagonalization with overlap
     c_bands:  1 eigenvalues not converged
     ethr =  3.35E-06,  avg # of iterations =  4.6

[...]

     Threshold (ethr) on eigenvalues was too large:
     Diagonalizing with lowered threshold

     Davidson diagonalization with overlap
     ethr =  8.28E-08,  avg # of iterations =  4.4

[...]

     Total force =     0.005775     Total SCF correction =     0.000621
     SCF correction compared to forces is large: reduce conv_thr to get better values
     Energy error            =      1.0E-04 Ry
     Gradient error          =      2.2E-03 Ry/Bohr

[...]

     Total force =     0.003535     Total SCF correction =     0.000230
     Energy error            =      3.0E-05 Ry
     Gradient error          =      1.4E-03 Ry/Bohr

     number of scf cycles    =  15
     number of bfgs steps    =  14

     energy             old  =  -21704.8119509689 Ry
     energy             new  =  -21704.8119810526 Ry

     CASE: energy            _new < energy            _old

     new trust radius        =       0.0050136982 bohr
     new conv_thr            =       0.0000000100 Ry

ATOMIC_POSITIONS (angstrom)
Au            2.0400000000        1.4424978336        0.6698089879    0   0   1
Au            2.0400000000        4.3274935009        0.6698107126    0   0   1
Au            0.0000000000        0.0000000000        2.0092527409    0   0   1
Au            0.0000000000        2.8849956672        2.0092527928    0   0   1
Au            2.0400000000        1.4424978336        3.3496665337    0   0   1
Au            2.0400000000        4.3274935009        3.3496668471    0   0   1
Au            0.0000000000        0.0000000000        4.6893138108    0   0   1
Au            0.0000000000        2.8849956672        4.6893140166    0   0   1
Au            2.0400000000        1.4424978336        6.0277100897    0   0   1
Au            2.0400000000        4.3274935009        6.0277107163    0   0   1
Au            0.0000000000        0.0000000000        7.3672480353    0   0   1
Au            0.0000000000        2.8849956672        7.3672482459    0   0   1
Au            2.0400000000        1.4424978336        8.7056471776    0   0   1
Au            2.0400000000        4.3274935009        8.7056475065    0   0   1
Au            0.0000000000        0.0000000000       10.0468430663    0   0   1
Au            0.0000000000        2.8849956672       10.0468426126    0   0   1
Au            2.0400000000        1.4424978336       11.3852463698    0   0   1
Au            2.0400000000        4.3274935009       11.3852473277    0   0   1
Au            0.0000000000        0.0000000000       12.7247933968    0   0   1
Au            0.0000000000        2.8849956672       12.7247931373    0   0   1
Au            2.0400000000        1.4424978336       14.0631699079    0   0   1
Au            2.0400000000        4.3274935009       14.0631713244    0   0   1
Au            0.0000000000        0.0000000000       15.4027966582    0   0   1
Au            0.0000000000        2.8849956672       15.4027965518    0   0   1
Au            2.0400000000        1.4424978336       16.7431906401    0   0   1
Au            2.0400000000        4.3274935009       16.7431908169    0   0   1
Au            0.0000000000        0.0000000000       18.0826129495    0   0   1
Au            0.0000000000        2.8849956672       18.0826127457    0   0   1

     Writing config-only to output data dir ./pwscf.save/
     NEW-OLD atomic charge density approx. for the potential

     Self-consistent Calculation

[...]

     Threshold (ethr) on eigenvalues was too large:
     Diagonalizing with lowered threshold

     Davidson diagonalization with overlap
     ethr =  7.48E-09,  avg # of iterations =  5.5

[...]

     total energy              =  -21704.81198988 Ry
     estimated scf accuracy    <       0.00000006 Ry

     iteration #  9     ecut=    50.00 Ry     beta= 0.10
     Davidson diagonalization with overlap
     ethr =  2.04E-11,  avg # of iterations =  4.4

     End of self-consistent calculation

[...]

          k = 0.3750-0.0589 0.0000 ( 17796 PWs)   bands (ev):

[...]

          k =-0.5000-0.3536 0.0000 ( 17712 PWs)   bands (ev):

     9.6782   9.6782   9.6782   9.6782  10.2767  10.2767  10.2767  10.2767
    10.2785  10.2785  10.2785  10.2785  10.6911  10.6911  10.6911  10.6911
    10.6931  10.6931  10.6931  10.6932  11.0015  11.0015  11.0015  11.0015
    11.0032  11.0032  11.0032  11.0032  11.6101  11.6101  11.6101  11.6101
    11.6122  11.6122  11.6123  11.6123  11.9394  11.9394  11.9394  11.9394
    11.9408  11.9408  11.9408  11.9408  12.0045  12.0045  12.0045  12.0045
    12.0060  12.0060  12.0060  12.0060  12.0644  12.0644  12.0644  12.0644
    12.2810  12.2810  12.2810  12.2810  12.2825  12.2825  12.2826  12.2826
    12.2933  12.2933  12.2933  12.2933  12.2945  12.2945  12.2945  12.2945
    12.3452  12.3452  12.3452  12.3452  12.9765  12.9765  12.9765  12.9765
    12.9777  12.9777  12.9777  12.9777  13.4414  13.4414  13.4414  13.4414
    13.4424  13.4424  13.4424  13.4424  13.5216  13.5216  13.5216  13.5216
    13.5343  13.5343  13.5343  13.5343  13.5347  13.5347  13.5347  13.5347
    13.5374  13.5374  13.5374  13.5374  13.5380  13.5380  13.5380  13.5380
    14.2844  14.2844  14.2844  14.2844  14.2861  14.2861  14.2861  14.2861
    14.3111  14.3111  14.3111  14.3111  14.3115  14.3115  14.3116  14.3116
    15.3212  15.3212  15.3212  15.3212  15.3988  15.3988  15.3988  15.3988
    15.4219  15.4219  15.4219  15.4219  15.4231  15.4231  15.4231  15.4231
    16.5351  16.5351  16.5351  16.5351  16.5355  16.5355  16.5355  16.5355
    17.5792  17.5792  17.5792  17.5792  17.5796  17.5796  17.5796  17.5796
    19.3329  19.3329  19.3329  19.3329  19.3341  19.3341  19.3341  19.3341
    23.2117  23.2117  23.2117  23.2117  23.2141  23.2141  23.2141  23.2141
    25.5977  25.5977  25.5977  25.5977  26.0435  26.0438  26.0438  26.0439
    26.0439

     the Fermi energy is    18.2826 ev

!    total energy              =  -21704.81198975 Ry

     total all-electron energy =  -1064672.502539 Ry
     estimated scf accuracy    <          9.1E-09 Ry
     smearing contrib. (-TS)   =      -3.18094227 Ry
     internal energy E=F+TS    =  -21701.63104748 Ry

     The total energy is F=E-TS. E is the sum of the following terms:
     one-electron contribution =     459.53268017 Ry
     hartree contribution      =     194.28296287 Ry
     xc contribution           =    -900.51782551 Ry
     ewald contribution        =   -2063.74376327 Ry
     one-center paw contrib.   =  -19391.18510174 Ry

     convergence has been achieved in   9 iterations

     Forces acting on atoms (cartesian axes, Ry/au):

     atom    1 type  1   force =     0.00000005   -0.00000027    0.00023036
     atom    2 type  1   force =     0.00000006   -0.00000026    0.00022944
     atom    3 type  1   force =    -0.00000008    0.00000042    0.00037913
     atom    4 type  1   force =    -0.00000010    0.00000029    0.00037905
     atom    5 type  1   force =     0.00000011   -0.00000019   -0.00047690
     atom    6 type  1   force =     0.00000013   -0.00000024   -0.00047652
     atom    7 type  1   force =    -0.00000003    0.00000041   -0.00052721
     atom    8 type  1   force =    -0.00000003    0.00000027   -0.00052722
     atom    9 type  1   force =     0.00000014   -0.00000017    0.00003781
     atom   10 type  1   force =     0.00000012   -0.00000021    0.00003738
     atom   11 type  1   force =    -0.00000006    0.00000027    0.00056047
     atom   12 type  1   force =    -0.00000000    0.00000042    0.00056032
     atom   13 type  1   force =     0.00000012   -0.00000029    0.00050373
     atom   14 type  1   force =     0.00000009   -0.00000025    0.00050376
     atom   15 type  1   force =    -0.00000007    0.00000019   -0.00049997
     atom   16 type  1   force =    -0.00000010    0.00000033   -0.00049986
     atom   17 type  1   force =     0.00000007   -0.00000021   -0.00056318
     atom   18 type  1   force =     0.00000004   -0.00000047   -0.00056338
     atom   19 type  1   force =    -0.00000010    0.00000011   -0.00005303
     atom   20 type  1   force =    -0.00000016    0.00000031   -0.00005302
     atom   21 type  1   force =     0.00000005   -0.00000035    0.00052038
     atom   22 type  1   force =    -0.00000002   -0.00000031    0.00051971
     atom   23 type  1   force =    -0.00000011    0.00000024    0.00047876
     atom   24 type  1   force =    -0.00000009    0.00000016    0.00047880
     atom   25 type  1   force =     0.00000005   -0.00000030   -0.00037580
     atom   26 type  1   force =     0.00000006   -0.00000036   -0.00037507
     atom   27 type  1   force =    -0.00000009    0.00000008   -0.00021402
     atom   28 type  1   force =    -0.00000004    0.00000036   -0.00021392

     Total force =     0.002248     Total SCF correction =     0.000315
     SCF correction compared to forces is large: reduce conv_thr to get better values
     Energy error            =      8.7E-06 Ry
     Gradient error          =      5.6E-04 Ry/Bohr

     bfgs converged in  16 scf cycles and  15 bfgs steps
     (criteria: energy <  1.0E-04 Ry, force <  1.0E-03 Ry/Bohr)

     End of BFGS Geometry Optimization

     Final energy             =  -21704.8119897519 Ry

     File ./pwscf.bfgs deleted, as requested
Begin final coordinates

ATOMIC_POSITIONS (angstrom)
Au            2.0400000000        1.4424978336        0.6698089879    0   0   1
Au            2.0400000000        4.3274935009        0.6698107126    0   0   1
Au            0.0000000000        0.0000000000        2.0092527409    0   0   1
Au            0.0000000000        2.8849956672        2.0092527928    0   0   1
Au            2.0400000000        1.4424978336        3.3496665337    0   0   1
Au            2.0400000000        4.3274935009        3.3496668471    0   0   1
Au            0.0000000000        0.0000000000        4.6893138108    0   0   1
Au            0.0000000000        2.8849956672        4.6893140166    0   0   1
Au            2.0400000000        1.4424978336        6.0277100897    0   0   1
Au            2.0400000000        4.3274935009        6.0277107163    0   0   1
Au            0.0000000000        0.0000000000        7.3672480353    0   0   1
Au            0.0000000000        2.8849956672        7.3672482459    0   0   1
Au            2.0400000000        1.4424978336        8.7056471776    0   0   1
Au            2.0400000000        4.3274935009        8.7056475065    0   0   1
Au            0.0000000000        0.0000000000       10.0468430663    0   0   1
Au            0.0000000000        2.8849956672       10.0468426126    0   0   1
Au            2.0400000000        1.4424978336       11.3852463698    0   0   1
Au            2.0400000000        4.3274935009       11.3852473277    0   0   1
Au            0.0000000000        0.0000000000       12.7247933968    0   0   1
Au            0.0000000000        2.8849956672       12.7247931373    0   0   1
Au            2.0400000000        1.4424978336       14.0631699079    0   0   1
Au            2.0400000000        4.3274935009       14.0631713244    0   0   1
Au            0.0000000000        0.0000000000       15.4027966582    0   0   1
Au            0.0000000000        2.8849956672       15.4027965518    0   0   1
Au            2.0400000000        1.4424978336       16.7431906401    0   0   1
Au            2.0400000000        4.3274935009       16.7431908169    0   0   1
Au            0.0000000000        0.0000000000       18.0826129495    0   0   1
Au            0.0000000000        2.8849956672       18.0826127457    0   0   1
End final coordinates

     Writing all to output data dir ./pwscf.save/

     General routines

     Parallel routines

   This run was terminated on:  16:43:23  18Mar2024

   JOB DONE.