     Program PWSCF v.7.0 starts on 11Mar2024 at  8: 7:50

     R & G space division:  proc/nbgrp/npool/nimage =      10

     Reading input from GSF110R_0.05.in
Warning: card &CELL ignored
Warning: card / ignored

     Current dimensions of program PWSCF are:
     Max number of different atomic species (ntypx) = 10
     Max number of k-points (npk) =  40000
     Max angular momentum in pseudopotentials (lmaxx) =  4

     File ./pwscf.update deleted, as requested

     File ./pwscf.bfgs deleted, as requested
     file Au.pbe-n-kjpaw_psl.1.0.0.UPF: wavefunction(s)  6S 5D renormalized
     Found identity + (  0.0000 -0.5000  0.0000) symmetry
     This is a supercell, fractional translations are disabled

     Using Slab Decomposition

     bravais-lattice index     =            0
     lattice parameter (alat)  =       7.7101  a.u.
     unit-cell volume          =    2979.1368 (a.u.)^3
     number of atoms/cell      =           28
     number of atomic types    =            1
     number of electrons       =       308.00
     number of Kohn-Sham states=          185
     kinetic-energy cutoff     =      50.0000  Ry
     charge density cutoff     =     250.0000  Ry
     scf convergence threshold =      1.0E-06
     mixing beta               =       0.0080
     number of iterations used =            8  plain     mixing
     energy convergence thresh.=      1.0E-04
     force convergence thresh. =      1.0E-03
     Exchange-correlation= SLA  PW   PBX  PBC
                           (   1   4   3   4   0   0   0)
     nstep                     =           50

     celldm(1)=   7.710083  celldm(2)=   0.000000  celldm(3)=   0.000000
     celldm(4)=   0.000000  celldm(5)=   0.000000  celldm(6)=   0.000000

     crystal axes: (cart. coord. in units of alat)
               a(1) = (   1.000000   0.000000   0.000000 )
               a(2) = (   0.000000   1.414214   0.000000 )
               a(3) = (   0.000000   0.000000   4.596194 )

     reciprocal axes: (cart. coord. in units 2 pi/alat)
               b(1) = (  1.000000  0.000000  0.000000 )
               b(2) = (  0.000000  0.707107  0.000000 )
               b(3) = (  0.000000  0.000000  0.217571 )

     PseudoPot. # 1 for Au read from file:
     ./Au.pbe-n-kjpaw_psl.1.0.0.UPF
     MD5 check sum: 4db85c736373c707a97ce4c36c2a9d23
     Pseudo is Projector augmented-wave + core cor, Zval = 11.0
     Generated using &quot;atomic&quot; code by A. Dal Corso  v.6.3
     Shape of augmentation charge: PSQ
     Using radial grid of 1279 points,  6 beta functions with:
                l(1) =   0
                l(2) =   0
                l(3) =   1
                l(4) =   1
                l(5) =   2
                l(6) =   2
     Q(r) pseudized with 0 coefficients

     atomic species   valence    mass     pseudopotential
        Au            11.00   196.96657     Au( 1.00)

     No symmetry found

   Cartesian axes

     site n.     atom                  positions (alat units)
         1           Au  tau(   1) = (   0.5000000   0.3535534   0.0000000  )
         2           Au  tau(   2) = (   0.5000000   1.0606602   0.0000000  )
         3           Au  tau(   3) = (   0.0000000   0.0000000   0.3535534  )
         4           Au  tau(   4) = (   0.0000000   0.7071068   0.3535534  )
         5           Au  tau(   5) = (   0.5000000   0.3535534   0.7071068  )
         6           Au  tau(   6) = (   0.5000000   1.0606602   0.7071068  )
         7           Au  tau(   7) = (   0.0000000   0.0000000   1.0606602  )
         8           Au  tau(   8) = (   0.0000000   0.7071068   1.0606602  )
         9           Au  tau(   9) = (   0.5000000   0.3535534   1.4142136  )
        10           Au  tau(  10) = (   0.5000000   1.0606602   1.4142136  )
        11           Au  tau(  11) = (   0.0000000   0.0000000   1.7677670  )
        12           Au  tau(  12) = (   0.0000000   0.7071068   1.7677670  )
        13           Au  tau(  13) = (   0.5000000   0.3535534   2.1213203  )
        14           Au  tau(  14) = (   0.5000000   1.0606602   2.1213203  )
        15           Au  tau(  15) = (   0.0000000   0.0000000   2.4748737  )
        16           Au  tau(  16) = (   0.0000000   0.7071068   2.4748737  )
        17           Au  tau(  17) = (   0.5500000   0.3535534   2.8284271  )
        18           Au  tau(  18) = (   0.5500000   1.0606602   2.8284271  )
        19           Au  tau(  19) = (   0.0500000   0.0000000   3.1819805  )
        20           Au  tau(  20) = (   0.0500000   0.7071068   3.1819805  )
        21           Au  tau(  21) = (   0.5500000   0.3535534   3.5355339  )
        22           Au  tau(  22) = (   0.5500000   1.0606602   3.5355339  )
        23           Au  tau(  23) = (   0.0500000   0.0000000   3.8890873  )
        24           Au  tau(  24) = (   0.0500000   0.7071068   3.8890873  )
        25           Au  tau(  25) = (   0.5500000   0.3535534   4.2426407  )
        26           Au  tau(  26) = (   0.5500000   1.0606602   4.2426407  )
        27           Au  tau(  27) = (   0.0500000   0.0000000   4.5961941  )
        28           Au  tau(  28) = (   0.0500000   0.7071068   4.5961941  )

     number of k points=    50  Gaussian smearing, width (Ry)=  0.2000
                       cart. coord. in units 2pi/alat
        k(    1) = (   0.0000000   0.0000000   0.0000000), wk =   0.0208333
        k(    2) = (   0.0000000   0.0589256   0.0000000), wk =   0.0416667
        k(    3) = (   0.0000000   0.1178511   0.0000000), wk =   0.0416667
        k(    4) = (   0.0000000   0.1767767   0.0000000), wk =   0.0416667
        k(    5) = (   0.0000000   0.2357023   0.0000000), wk =   0.0416667
        k(    6) = (   0.0000000   0.2946278   0.0000000), wk =   0.0416667
        k(    7) = (   0.0000000  -0.3535534   0.0000000), wk =   0.0208333
        k(    8) = (   0.1250000   0.0000000   0.0000000), wk =   0.0416667
        k(    9) = (   0.1250000   0.0589256   0.0000000), wk =   0.0416667
        k(   10) = (   0.1250000   0.1178511   0.0000000), wk =   0.0416667
        k(   11) = (   0.1250000   0.1767767   0.0000000), wk =   0.0416667
        k(   12) = (   0.1250000   0.2357023   0.0000000), wk =   0.0416667
        k(   13) = (   0.1250000   0.2946278   0.0000000), wk =   0.0416667
        k(   14) = (   0.1250000  -0.3535534   0.0000000), wk =   0.0416667
        k(   15) = (   0.1250000  -0.2946278   0.0000000), wk =   0.0416667
        k(   16) = (   0.1250000  -0.2357023   0.0000000), wk =   0.0416667
        k(   17) = (   0.1250000  -0.1767767   0.0000000), wk =   0.0416667
        k(   18) = (   0.1250000  -0.1178511   0.0000000), wk =   0.0416667
        k(   19) = (   0.1250000  -0.0589256   0.0000000), wk =   0.0416667
        k(   20) = (   0.2500000   0.0000000   0.0000000), wk =   0.0416667
        k(   21) = (   0.2500000   0.0589256   0.0000000), wk =   0.0416667
        k(   22) = (   0.2500000   0.1178511   0.0000000), wk =   0.0416667
        k(   23) = (   0.2500000   0.1767767   0.0000000), wk =   0.0416667
        k(   24) = (   0.2500000   0.2357023   0.0000000), wk =   0.0416667
        k(   25) = (   0.2500000   0.2946278   0.0000000), wk =   0.0416667
        k(   26) = (   0.2500000  -0.3535534   0.0000000), wk =   0.0416667
        k(   27) = (   0.2500000  -0.2946278   0.0000000), wk =   0.0416667
        k(   28) = (   0.2500000  -0.2357023   0.0000000), wk =   0.0416667
        k(   29) = (   0.2500000  -0.1767767   0.0000000), wk =   0.0416667
        k(   30) = (   0.2500000  -0.1178511   0.0000000), wk =   0.0416667
        k(   31) = (   0.2500000  -0.0589256   0.0000000), wk =   0.0416667
        k(   32) = (   0.3750000   0.0000000   0.0000000), wk =   0.0416667
        k(   33) = (   0.3750000   0.0589256   0.0000000), wk =   0.0416667
        k(   34) = (   0.3750000   0.1178511   0.0000000), wk =   0.0416667
        k(   35) = (   0.3750000   0.1767767   0.0000000), wk =   0.0416667
        k(   36) = (   0.3750000   0.2357023   0.0000000), wk =   0.0416667
        k(   37) = (   0.3750000   0.2946278   0.0000000), wk =   0.0416667
        k(   38) = (   0.3750000  -0.3535534   0.0000000), wk =   0.0416667
        k(   39) = (   0.3750000  -0.2946278   0.0000000), wk =   0.0416667
        k(   40) = (   0.3750000  -0.2357023   0.0000000), wk =   0.0416667
        k(   41) = (   0.3750000  -0.1767767   0.0000000), wk =   0.0416667
        k(   42) = (   0.3750000  -0.1178511   0.0000000), wk =   0.0416667
        k(   43) = (   0.3750000  -0.0589256   0.0000000), wk =   0.0416667
        k(   44) = (  -0.5000000   0.0000000   0.0000000), wk =   0.0208333
        k(   45) = (  -0.5000000   0.0589256   0.0000000), wk =   0.0416667
        k(   46) = (  -0.5000000   0.1178511   0.0000000), wk =   0.0416667
        k(   47) = (  -0.5000000   0.1767767   0.0000000), wk =   0.0416667
        k(   48) = (  -0.5000000   0.2357023   0.0000000), wk =   0.0416667
        k(   49) = (  -0.5000000   0.2946278   0.0000000), wk =   0.0416667
        k(   50) = (  -0.5000000  -0.3535534   0.0000000), wk =   0.0208333

     Initial potential from superposition of free atoms

     starting charge     307.9969, renormalised to     308.0000
     Starting wfcs are  252 randomized atomic wfcs
     Checking if some PAW data can be deallocated...

     Self-consistent Calculation

     iteration #  1     ecut=    50.00 Ry     beta= 0.01
     Davidson diagonalization with overlap
     ethr =  1.00E-02,  avg # of iterations =  4.3

     total energy              =  -21689.64808253 Ry
     estimated scf accuracy    <      28.86925806 Ry

[...]

     iteration #  8     ecut=    50.00 Ry     beta= 0.01
     Davidson diagonalization with overlap
     c_bands:  1 eigenvalues not converged
     c_bands:  1 eigenvalues not converged
     ethr =  2.90E-04,  avg # of iterations =  3.7

[...]

     End of self-consistent calculation

          k = 0.0000 0.0000 0.0000 ( 17807 PWs)   bands (ev):

    -0.0577   0.2235   0.2236   0.2840   0.9294   1.0307   1.0307   1.5702
     1.7261   1.9947   2.4940   2.4941   3.6272   4.5107   5.2073   5.2074
     5.9642   6.4755   6.4756   6.7819   8.4077   8.4326   9.1209   9.6948
     9.7318  10.3131  10.3830  10.3830  10.8488  10.9531  10.9540  11.0554
    11.0820  11.1661  11.1882  11.2248  11.2568  11.2913  11.3646  11.3810
    11.4616  11.4815  11.5029  11.5076  11.5251  11.6507  11.6694  11.6758
    11.7991  11.8047  11.8088  11.8719  12.0000  12.0152  12.0360  12.0408
    12.0922  12.1580  12.2332  12.2460  12.3871  12.4103  12.4415  12.6095
    12.6170  12.6297  12.6413  12.7055  12.7386  12.8079  12.8634  12.8847
    13.0102  13.0167  13.0195  13.1472  13.1710  13.2004  13.2921  13.3305
    13.3694  13.4074  13.4408  13.5542  13.6246  13.6380  13.7655  13.8373
    13.9382  13.9489  14.1135  14.1695  14.2003  14.2097  14.2239  14.2888
    14.3527  14.3987  14.4043  14.4665  14.4997  14.5527  14.6210  14.6560
    14.6612  14.7086  14.7626  14.7665  14.7755  14.7797  14.8659  14.8820
    15.0176  15.0310  15.0568  15.1271  15.1502  15.1847  15.1892  15.3607
    15.4369  15.4384  15.4991  15.5023  15.5551  15.6575  15.7180  15.7791
[...]

     convergence has been achieved in  51 iterations

     Forces acting on atoms (cartesian axes, Ry/au):

     atom    1 type  1   force =    -0.71106306   -0.00000286    7.20041809
     atom    2 type  1   force =    -0.71105099    0.00000553    7.20031697
     atom    3 type  1   force =    -1.04008574   -0.00004816    7.35054832
     atom    4 type  1   force =    -1.04007526    0.00004557    7.35052681
     atom    5 type  1   force =     0.00557846    0.00001696    0.03163315
     atom    6 type  1   force =     0.00557447   -0.00002286    0.03161013
     atom    7 type  1   force =    -0.00058248   -0.00002946    0.00136120
     atom    8 type  1   force =    -0.00058657    0.00002812    0.00134445
     atom    9 type  1   force =    -0.00018154   -0.00000246    0.00160282
     atom   10 type  1   force =    -0.00018011    0.00000143    0.00161479
     atom   11 type  1   force =     0.00004665   -0.00004224   -0.00022051
     atom   12 type  1   force =     0.00003972    0.00004227   -0.00022669
     atom   13 type  1   force =    -0.00474216   -0.00002441    0.00049835
     atom   14 type  1   force =    -0.00473926    0.00002249    0.00049512
     atom   15 type  1   force =     0.03265905   -0.00002985   -0.00970655
     atom   16 type  1   force =     0.03265845    0.00003570   -0.00972017
     atom   17 type  1   force =    -0.03261078   -0.00004076    0.00955400
     atom   18 type  1   force =    -0.03261853    0.00004194    0.00953585
     atom   19 type  1   force =     0.00502058   -0.00001073   -0.00181130
     atom   20 type  1   force =     0.00501445    0.00001095   -0.00179140
     atom   21 type  1   force =     0.00050033   -0.00001149   -0.00091902
     atom   22 type  1   force =     0.00050640    0.00001593   -0.00088789
     atom   23 type  1   force =    -0.00565367   -0.00004100   -0.03147606
     atom   24 type  1   force =    -0.00565657    0.00004002   -0.03148563
     atom   25 type  1   force =     1.04004995   -0.00001816   -7.35071207
     atom   26 type  1   force =     1.04003005    0.00001897   -7.35062619
     atom   27 type  1   force =     0.71107902   -0.00004880   -7.20076416
     atom   28 type  1   force =     0.71106914    0.00004736   -7.20071239

     Total force =    20.579643     Total SCF correction =     0.003209

     BFGS Geometry Optimization
     Energy error            =      0.0E+00 Ry
     Gradient error          =      7.4E+00 Ry/Bohr

     number of scf cycles    =   1
     number of bfgs steps    =   0

     energy             new  =  -21689.2281294245 Ry

     new trust radius        =       0.5000000000 bohr
     new conv_thr            =       0.0000010000 Ry

ATOMIC_POSITIONS (angstrom)
Au            2.0400000000        1.4424978336        0.2591787790    0   0   1
Au            2.0400000000        4.3274935009        0.2591751393    0   0   1
Au            0.0000000000        0.0000000000        1.7070805447    0   0   1
Au            0.0000000000        2.8849956672        1.7070797704    0   0   1
Au            2.0400000000        1.4424978336        2.8861343014    0   0   1
Au            2.0400000000        4.3274935009        2.8861334725    0   0   1
Au            0.0000000000        0.0000000000        4.3275424973    0   0   1
Au            0.0000000000        2.8849956672        4.3275418942    0   0   1
Au            2.0400000000        1.4424978336        5.7700490278    0   0   1
Au            2.0400000000        4.3274935009        5.7700494588    0   0   1
Au            0.0000000000        0.0000000000        7.2124812308    0   0   1
Au            0.0000000000        2.8849956672        7.2124810082    0   0   1
Au            2.0400000000        1.4424978336        8.6550049397    0   0   1
Au            2.0400000000        4.3274935009        8.6550048235    0   0   1
Au            0.0000000000        0.0000000000       10.0971354486    0   0   1
Au            0.0000000000        2.8849956672       10.0971349583    0   0   1
Au            2.2440000000        1.4424978336       11.5403265648    0   0   1
Au            2.2440000000        4.3274935009       11.5403259115    0   0   1
Au            0.2040000000        0.0000000000       12.9824153050    0   0   1
Au            0.2040000000        2.8849956672       12.9824160211    0   0   1
Au            2.2440000000        1.4424978336       14.4249452562    0   0   1
Au            2.2440000000        4.3274935009       14.4249463767    0   0   1
Au            0.2040000000        0.0000000000       15.8663431903    0   0   1
Au            0.2040000000        2.8849956672       15.8663428458    0   0   1
Au            2.2440000000        1.4424978336       17.0453853979    0   0   1
Au            2.2440000000        4.3274935009       17.0453884892    0   0   1
Au            0.2040000000        0.0000000000       18.4932806012    0   0   1
Au            0.2040000000        2.8849956672       18.4932824646    0   0   1

     Writing config-only to output data dir ./pwscf.save/
     NEW-OLD atomic charge density approx. for the potential

[...]

     Total force =     3.075304     Total SCF correction =     0.004115
     Energy error            =      1.4E+01 Ry
     Gradient error          =      1.1E+00 Ry/Bohr

[...]

     energy             old  =  -21689.2281294245 Ry
     energy             new  =  -21702.7857712148 Ry

     CASE: energy            _new < energy            _old

[...]

     iteration #  8     ecut=    50.00 Ry     beta= 0.01
     Davidson diagonalization with overlap
     c_bands:  1 eigenvalues not converged
     ethr =  2.42E-08,  avg # of iterations =  2.5

[...]

     Threshold (ethr) on eigenvalues was too large:
     Diagonalizing with lowered threshold

     Davidson diagonalization with overlap
     ethr =  3.60E-08,  avg # of iterations =  4.6

[...]

     number of scf cycles    =  15
     number of bfgs steps    =  14

     energy             old  =  -21704.7865332945 Ry
     energy             new  =  -21704.7865940711 Ry

     CASE: energy            _new < energy            _old

     new trust radius        =       0.0047629358 bohr
     new conv_thr            =       0.0000000100 Ry

ATOMIC_POSITIONS (angstrom)
Au            2.0400000000        1.4424978336        0.6901748407    0   0   1
Au            2.0400000000        4.3274935009        0.6901781016    0   0   1
Au            0.0000000000        0.0000000000        1.9979150018    0   0   1
Au            0.0000000000        2.8849956672        1.9979155351    0   0   1
Au            2.0400000000        1.4424978336        3.3588175953    0   0   1
Au            2.0400000000        4.3274935009        3.3588151308    0   0   1
Au            0.0000000000        0.0000000000        4.6829473073    0   0   1
Au            0.0000000000        2.8849956672        4.6829461942    0   0   1
Au            2.0400000000        1.4424978336        6.0339719216    0   0   1
Au            2.0400000000        4.3274935009        6.0339740704    0   0   1
Au            0.0000000000        0.0000000000        7.3580846190    0   0   1
Au            0.0000000000        2.8849956672        7.3580849914    0   0   1
Au            2.0400000000        1.4424978336        8.7161381794    0   0   1
Au            2.0400000000        4.3274935009        8.7161398165    0   0   1
Au            0.0000000000        0.0000000000       10.0256155042    0   0   1
Au            0.0000000000        2.8849956672       10.0256144802    0   0   1
Au            2.2440000000        1.4424978336       11.4054566022    0   0   1
Au            2.2440000000        4.3274935009       11.4054540627    0   0   1
Au            0.2040000000        0.0000000000       12.7124453350    0   0   1
Au            0.2040000000        2.8849956672       12.7124437515    0   0   1
Au            2.2440000000        1.4424978336       14.0744815664    0   0   1
Au            2.2440000000        4.3274935009       14.0744831889    0   0   1
Au            0.2040000000        0.0000000000       15.3925788717    0   0   1
Au            0.2040000000        2.8849956672       15.3925794809    0   0   1
Au            2.2440000000        1.4424978336       16.7561084244    0   0   1
Au            2.2440000000        4.3274935009       16.7561059279    0   0   1
Au            0.2040000000        0.0000000000       18.0625684660    0   0   1
Au            0.2040000000        2.8849956672       18.0625667518    0   0   1

     Writing config-only to output data dir ./pwscf.save/
     NEW-OLD atomic charge density approx. for the potential

     Self-consistent Calculation

[...]

     Threshold (ethr) on eigenvalues was too large:
     Diagonalizing with lowered threshold

     Davidson diagonalization with overlap
     ethr =  1.71E-08,  avg # of iterations =  4.2

[...]

     total energy              =  -21704.78661442 Ry
     estimated scf accuracy    <       0.00000002 Ry

     iteration # 21     ecut=    50.00 Ry     beta= 0.01
     Davidson diagonalization with overlap
     ethr =  4.05E-12,  avg # of iterations =  2.3

     End of self-consistent calculation

[...]

          k = 0.3750-0.0589 0.0000 ( 17796 PWs)   bands (ev):

[...]

          k =-0.5000-0.3536 0.0000 ( 17712 PWs)   bands (ev):

     9.6672   9.6672   9.6673   9.6673  10.2248  10.2248  10.2263  10.2263
    10.2802  10.2802  10.2815  10.2815  10.6670  10.6670  10.6682  10.6682
    10.7047  10.7047  10.7054  10.7054  10.9631  10.9631  10.9647  10.9647
    11.0516  11.0516  11.0530  11.0530  11.5623  11.5623  11.5634  11.5634
    11.6099  11.6099  11.6112  11.6112  11.8601  11.8601  11.8611  11.8611
    11.9279  11.9279  11.9282  11.9282  11.9477  11.9477  11.9479  11.9479
    12.0036  12.0036  12.0040  12.0040  12.1000  12.1000  12.1005  12.1005
    12.2065  12.2065  12.2073  12.2073  12.2747  12.2747  12.2758  12.2758
    12.3002  12.3002  12.3013  12.3013  12.3423  12.3423  12.3432  12.3432
    12.4138  12.4138  12.4144  12.4144  12.9130  12.9130  12.9141  12.9141
    13.0402  13.0402  13.0411  13.0411  13.3223  13.3223  13.3233  13.3233
    13.4048  13.4048  13.4049  13.4049  13.4598  13.4598  13.4613  13.4613
    13.5250  13.5250  13.5253  13.5253  13.5420  13.5420  13.5423  13.5423
    13.5671  13.5671  13.5673  13.5673  13.7039  13.7039  13.7043  13.7043
    14.2213  14.2213  14.2223  14.2223  14.2739  14.2739  14.2749  14.2749
    14.3419  14.3419  14.3424  14.3424  14.3858  14.3858  14.3873  14.3873
    15.3158  15.3158  15.3160  15.3160  15.3419  15.3419  15.3420  15.3421
    15.4157  15.4157  15.4162  15.4162  15.4701  15.4701  15.4704  15.4704
    16.5098  16.5098  16.5101  16.5101  16.5365  16.5365  16.5368  16.5368
    17.5722  17.5722  17.5727  17.5727  17.5992  17.5992  17.5996  17.5996
    19.3331  19.3331  19.3341  19.3341  19.3780  19.3780  19.3789  19.3789
    23.1313  23.1313  23.1326  23.1326  23.2935  23.2935  23.2949  23.2949
    25.5970  25.5970  25.5971  25.5971  26.0281  26.0284  26.0287  26.0357
    26.0620

     the Fermi energy is    18.2831 ev

!    total energy              =  -21704.78661441 Ry

     total all-electron energy =  -1064672.477164 Ry
     estimated scf accuracy    <          2.4E-09 Ry
     smearing contrib. (-TS)   =      -3.18130770 Ry
     internal energy E=F+TS    =  -21701.60530671 Ry

     The total energy is F=E-TS. E is the sum of the following terms:
     one-electron contribution =     457.88035198 Ry
     hartree contribution      =     195.09311476 Ry
     xc contribution           =    -900.56194703 Ry
     ewald contribution        =   -2062.81790392 Ry
     one-center paw contrib.   =  -19391.19892250 Ry

     convergence has been achieved in  21 iterations

     Forces acting on atoms (cartesian axes, Ry/au):

     atom    1 type  1   force =     0.03926557    0.00000024    0.00046629
     atom    2 type  1   force =     0.03926534   -0.00000021    0.00046300
     atom    3 type  1   force =    -0.00766356    0.00000043    0.00085801
     atom    4 type  1   force =    -0.00766351   -0.00000046    0.00085704
     atom    5 type  1   force =     0.00019594   -0.00000011   -0.00057422
     atom    6 type  1   force =     0.00019594    0.00000012   -0.00057130
     atom    7 type  1   force =     0.00009391   -0.00000036   -0.00058831
     atom    8 type  1   force =     0.00009390    0.00000034   -0.00058736
     atom    9 type  1   force =     0.00009250    0.00000015   -0.00018222
     atom   10 type  1   force =     0.00009255   -0.00000016   -0.00018379
     atom   11 type  1   force =     0.00019520    0.00000010    0.00015555
     atom   12 type  1   force =     0.00019520   -0.00000010    0.00015469
     atom   13 type  1   force =    -0.00762392   -0.00000013    0.00053812
     atom   14 type  1   force =    -0.00762401    0.00000017    0.00053719
     atom   15 type  1   force =     0.03928889    0.00000038   -0.00017541
     atom   16 type  1   force =     0.03928881   -0.00000039   -0.00017496
     atom   17 type  1   force =    -0.03934680    0.00000002   -0.00020272
     atom   18 type  1   force =    -0.03934702    0.00000003   -0.00020024
     atom   19 type  1   force =     0.00766635   -0.00000032   -0.00002587
     atom   20 type  1   force =     0.00766636    0.00000033   -0.00002506
     atom   21 type  1   force =    -0.00027271    0.00000014    0.00045858
     atom   22 type  1   force =    -0.00027263   -0.00000013    0.00045628
     atom   23 type  1   force =    -0.00027234    0.00000037    0.00028144
     atom   24 type  1   force =    -0.00027235   -0.00000038    0.00028022
     atom   25 type  1   force =     0.00767424   -0.00000019   -0.00059207
     atom   26 type  1   force =     0.00767409    0.00000016   -0.00058946
     atom   27 type  1   force =    -0.03929306   -0.00000049   -0.00041740
     atom   28 type  1   force =    -0.03929289    0.00000045   -0.00041603

     Total force =     0.002389     Total SCF correction =     0.000148
     Energy error            =      2.0E-05 Ry
     Gradient error          =      8.6E-04 Ry/Bohr

     bfgs converged in  16 scf cycles and  15 bfgs steps
     (criteria: energy <  1.0E-04 Ry, force <  1.0E-03 Ry/Bohr)

     End of BFGS Geometry Optimization

     Final energy             =  -21704.7866144118 Ry

     File ./pwscf.bfgs deleted, as requested
Begin final coordinates

ATOMIC_POSITIONS (angstrom)
Au            2.0400000000        1.4424978336        0.6901748407    0   0   1
Au            2.0400000000        4.3274935009        0.6901781016    0   0   1
Au            0.0000000000        0.0000000000        1.9979150018    0   0   1
Au            0.0000000000        2.8849956672        1.9979155351    0   0   1
Au            2.0400000000        1.4424978336        3.3588175953    0   0   1
Au            2.0400000000        4.3274935009        3.3588151308    0   0   1
Au            0.0000000000        0.0000000000        4.6829473073    0   0   1
Au            0.0000000000        2.8849956672        4.6829461942    0   0   1
Au            2.0400000000        1.4424978336        6.0339719216    0   0   1
Au            2.0400000000        4.3274935009        6.0339740704    0   0   1
Au            0.0000000000        0.0000000000        7.3580846190    0   0   1
Au            0.0000000000        2.8849956672        7.3580849914    0   0   1
Au            2.0400000000        1.4424978336        8.7161381794    0   0   1
Au            2.0400000000        4.3274935009        8.7161398165    0   0   1
Au            0.0000000000        0.0000000000       10.0256155042    0   0   1
Au            0.0000000000        2.8849956672       10.0256144802    0   0   1
Au            2.2440000000        1.4424978336       11.4054566022    0   0   1
Au            2.2440000000        4.3274935009       11.4054540627    0   0   1
Au            0.2040000000        0.0000000000       12.7124453350    0   0   1
Au            0.2040000000        2.8849956672       12.7124437515    0   0   1
Au            2.2440000000        1.4424978336       14.0744815664    0   0   1
Au            2.2440000000        4.3274935009       14.0744831889    0   0   1
Au            0.2040000000        0.0000000000       15.3925788717    0   0   1
Au            0.2040000000        2.8849956672       15.3925794809    0   0   1
Au            2.2440000000        1.4424978336       16.7561084244    0   0   1
Au            2.2440000000        4.3274935009       16.7561059279    0   0   1
Au            0.2040000000        0.0000000000       18.0625684660    0   0   1
Au            0.2040000000        2.8849956672       18.0625667518    0   0   1
End final coordinates

     Writing all to output data dir ./pwscf.save/

     General routines

     Parallel routines

   This run was terminated on:  17:15:40  11Mar2024

   JOB DONE.