     Program PWSCF v.7.0 starts on  2Mar2024 at  9: 9:29

     R & G space division:  proc/nbgrp/npool/nimage =      10

     Reading input from GSF110_0.25.in
Warning: card &CELL ignored
Warning: card / ignored

     Current dimensions of program PWSCF are:
     Max number of different atomic species (ntypx) = 10
     Max number of k-points (npk) =  40000
     Max angular momentum in pseudopotentials (lmaxx) =  4
     file Au.pbe-n-kjpaw_psl.1.0.0.UPF: wavefunction(s)  6S 5D renormalized
     Found identity + (  0.0000 -0.5000  0.0000) symmetry
     This is a supercell, fractional translations are disabled
     Message from routine setup:
     using ibrav=0 with symmetry is DISCOURAGED, use correct ibrav instead

     Using Slab Decomposition

     bravais-lattice index     =            0
     lattice parameter (alat)  =       7.7101  a.u.
     unit-cell volume          =    2979.1368 (a.u.)^3
     number of atoms/cell      =           28
     number of atomic types    =            1
     number of electrons       =       308.00
     number of Kohn-Sham states=          185
     kinetic-energy cutoff     =      50.0000  Ry
     charge density cutoff     =     200.0000  Ry
     scf convergence threshold =      1.0E-06
     mixing beta               =       0.1000
     number of iterations used =            8  plain     mixing
     Exchange-correlation= SLA  PW   PBX  PBC
                           (   1   4   3   4   0   0   0)

     celldm(1)=   7.710083  celldm(2)=   0.000000  celldm(3)=   0.000000
     celldm(4)=   0.000000  celldm(5)=   0.000000  celldm(6)=   0.000000

     crystal axes: (cart. coord. in units of alat)
               a(1) = (   1.000000   0.000000   0.000000 )
               a(2) = (   0.000000   1.414214   0.000000 )
               a(3) = (   0.000000   0.000000   4.596194 )

     reciprocal axes: (cart. coord. in units 2 pi/alat)
               b(1) = (  1.000000  0.000000  0.000000 )
               b(2) = (  0.000000  0.707107  0.000000 )
               b(3) = (  0.000000  0.000000  0.217571 )

     PseudoPot. # 1 for Au read from file:
     ./Au.pbe-n-kjpaw_psl.1.0.0.UPF
     MD5 check sum: 4db85c736373c707a97ce4c36c2a9d23
     Pseudo is Projector augmented-wave + core cor, Zval = 11.0
     Generated using &quot;atomic&quot; code by A. Dal Corso  v.6.3
     Shape of augmentation charge: PSQ
     Using radial grid of 1279 points,  6 beta functions with:
                l(1) =   0
                l(2) =   0
                l(3) =   1
                l(4) =   1
                l(5) =   2
                l(6) =   2
     Q(r) pseudized with 0 coefficients

     atomic species   valence    mass     pseudopotential
        Au            11.00   196.96657     Au( 1.00)

      2 Sym. Ops. (no inversion) found

   Cartesian axes

     site n.     atom                  positions (alat units)
         1           Au  tau(   1) = (   0.5000000   0.3535534   0.0000000  )
         2           Au  tau(   2) = (   0.5000000   1.0606602   0.0000000  )
         3           Au  tau(   3) = (   0.0000000   0.0000000   0.3535534  )
         4           Au  tau(   4) = (   0.0000000   0.7071068   0.3535534  )
         5           Au  tau(   5) = (   0.5000000   0.3535534   0.7071068  )
         6           Au  tau(   6) = (   0.5000000   1.0606602   0.7071068  )
         7           Au  tau(   7) = (   0.0000000   0.0000000   1.0606602  )
         8           Au  tau(   8) = (   0.0000000   0.7071068   1.0606602  )
         9           Au  tau(   9) = (   0.5000000   0.3535534   1.4142136  )
        10           Au  tau(  10) = (   0.5000000   1.0606602   1.4142136  )
        11           Au  tau(  11) = (   0.0000000   0.0000000   1.7677670  )
        12           Au  tau(  12) = (   0.0000000   0.7071068   1.7677670  )
        13           Au  tau(  13) = (   0.5000000   0.3535534   2.1213203  )
        14           Au  tau(  14) = (   0.5000000   1.0606602   2.1213203  )
        15           Au  tau(  15) = (   0.0000000   0.0000000   2.4748737  )
        16           Au  tau(  16) = (   0.0000000   0.7071068   2.4748737  )
        17           Au  tau(  17) = (   0.7500000   0.3535534   2.8284271  )
        18           Au  tau(  18) = (   0.7500000   1.0606602   2.8284271  )
        19           Au  tau(  19) = (   0.2500000   0.0000000   3.1819805  )
        20           Au  tau(  20) = (   0.2500000   0.7071068   3.1819805  )
        21           Au  tau(  21) = (   0.7500000   0.3535534   3.5355339  )
        22           Au  tau(  22) = (   0.7500000   1.0606602   3.5355339  )
        23           Au  tau(  23) = (   0.2500000   0.0000000   3.8890873  )
        24           Au  tau(  24) = (   0.2500000   0.7071068   3.8890873  )
        25           Au  tau(  25) = (   0.7500000   0.3535534   4.2426407  )
        26           Au  tau(  26) = (   0.7500000   1.0606602   4.2426407  )
        27           Au  tau(  27) = (   0.2500000   0.0000000   4.5961941  )
        28           Au  tau(  28) = (   0.2500000   0.7071068   4.5961941  )

     number of k points=    35  Gaussian smearing, width (Ry)=  0.0200
                       cart. coord. in units 2pi/alat
        k(    1) = (   0.0000000   0.0000000   0.0000000), wk =   0.0208333
        k(    2) = (   0.0000000   0.0589256   0.0000000), wk =   0.0416667
        k(    3) = (   0.0000000   0.1178511   0.0000000), wk =   0.0416667
        k(    4) = (   0.0000000   0.1767767   0.0000000), wk =   0.0416667
        k(    5) = (   0.0000000   0.2357023   0.0000000), wk =   0.0416667
        k(    6) = (   0.0000000   0.2946278   0.0000000), wk =   0.0416667
        k(    7) = (   0.0000000  -0.3535534   0.0000000), wk =   0.0208333
        k(    8) = (   0.1250000   0.0000000   0.0000000), wk =   0.0416667
        k(    9) = (   0.1250000   0.0589256   0.0000000), wk =   0.0833333
        k(   10) = (   0.1250000   0.1178511   0.0000000), wk =   0.0833333
        k(   11) = (   0.1250000   0.1767767   0.0000000), wk =   0.0833333
        k(   12) = (   0.1250000   0.2357023   0.0000000), wk =   0.0833333
        k(   13) = (   0.1250000   0.2946278   0.0000000), wk =   0.0833333
        k(   14) = (   0.1250000  -0.3535534   0.0000000), wk =   0.0416667
        k(   15) = (   0.2500000   0.0000000   0.0000000), wk =   0.0416667
        k(   16) = (   0.2500000   0.0589256   0.0000000), wk =   0.0833333
        k(   17) = (   0.2500000   0.1178511   0.0000000), wk =   0.0833333
        k(   18) = (   0.2500000   0.1767767   0.0000000), wk =   0.0833333
        k(   19) = (   0.2500000   0.2357023   0.0000000), wk =   0.0833333
        k(   20) = (   0.2500000   0.2946278   0.0000000), wk =   0.0833333
        k(   21) = (   0.2500000  -0.3535534   0.0000000), wk =   0.0416667
        k(   22) = (   0.3750000   0.0000000   0.0000000), wk =   0.0416667
        k(   23) = (   0.3750000   0.0589256   0.0000000), wk =   0.0833333
        k(   24) = (   0.3750000   0.1178511   0.0000000), wk =   0.0833333
        k(   25) = (   0.3750000   0.1767767   0.0000000), wk =   0.0833333
        k(   26) = (   0.3750000   0.2357023   0.0000000), wk =   0.0833333
        k(   27) = (   0.3750000   0.2946278   0.0000000), wk =   0.0833333
        k(   28) = (   0.3750000  -0.3535534   0.0000000), wk =   0.0416667
        k(   29) = (  -0.5000000   0.0000000   0.0000000), wk =   0.0208333
        k(   30) = (  -0.5000000   0.0589256   0.0000000), wk =   0.0416667
        k(   31) = (  -0.5000000   0.1178511   0.0000000), wk =   0.0416667
        k(   32) = (  -0.5000000   0.1767767   0.0000000), wk =   0.0416667
        k(   33) = (  -0.5000000   0.2357023   0.0000000), wk =   0.0416667
        k(   34) = (  -0.5000000   0.2946278   0.0000000), wk =   0.0416667
        k(   35) = (  -0.5000000  -0.3535534   0.0000000), wk =   0.0208333

     Initial potential from superposition of free atoms

     starting charge     307.9969, renormalised to     308.0000
     Starting wfcs are  252 randomized atomic wfcs
     Checking if some PAW data can be deallocated...

     Self-consistent Calculation

     iteration #  1     ecut=    50.00 Ry     beta= 0.10
     Davidson diagonalization with overlap
     ethr =  1.00E-02,  avg # of iterations =  4.0

     total energy              =  -21691.35634910 Ry
     estimated scf accuracy    <      14.60726798 Ry

[...]

     iteration #  7     ecut=    50.00 Ry     beta= 0.10
     Davidson diagonalization with overlap
     c_bands:  1 eigenvalues not converged
     c_bands:  1 eigenvalues not converged
     ethr =  7.86E-05,  avg # of iterations =  7.6

[...]

     iteration # 11     ecut=    50.00 Ry     beta= 0.10
     Davidson diagonalization with overlap
     c_bands:  1 eigenvalues not converged
     c_bands:  1 eigenvalues not converged
     c_bands:  2 eigenvalues not converged
     ethr =  3.01E-06,  avg # of iterations =  6.7

[...]

     total energy              =  -21693.96294855 Ry
     estimated scf accuracy    <       0.00000268 Ry

     iteration # 18     ecut=    50.00 Ry     beta= 0.10
     Davidson diagonalization with overlap
     ethr =  8.71E-10,  avg # of iterations =  4.1

     End of self-consistent calculation

          k = 0.0000 0.0000 0.0000 ( 17807 PWs)   bands (ev):

     1.0415   1.2233   1.2234   2.6125   2.9401   3.0800   3.1921   3.1923
     4.8944   4.9346   5.6781   5.6787   6.3248   7.5149   7.5153   7.8513
     8.0875   8.3130   9.2486   9.4232   9.6020   9.7331   9.7332   9.7545
    10.0679  10.3278  10.3324  10.4205  10.6276  10.6286  10.6512  10.8696
    10.8982  10.9379  11.0988  11.1606  11.1930  11.2328  11.3151  11.3193
    11.3266  11.3456  11.3800  11.3837  11.4207  11.4625  11.5436  11.6330
    11.6439  11.7256  11.7314  11.7697  11.8292  11.9111  11.9941  12.1140
    12.1283  12.1726  12.3047  12.3340  12.3422  12.4276  12.5751  12.5852
    12.6743  12.7154  12.7966  12.8109  12.8457  12.9397  12.9829  13.0098
    13.0337  13.0470  13.1222  13.1640  13.2693  13.2913  13.3613  13.4118
    13.4217  13.4500  13.4550  13.5298  13.5323  13.5535  13.6432  13.8217
    13.8244  13.8649  13.8789  14.0448  14.0592  14.2151  14.2905  14.2983
    14.3591  14.4279  14.4623  14.4758  14.5846  14.6319  14.6597  14.6799
    14.6871  14.7895  14.8715  14.8817  14.9190  14.9237  14.9253  14.9506
    14.9707  14.9895  15.0496  15.1529  15.2131  15.3376  15.3406  15.3627
    15.4128  15.4236  15.4700  15.5502  15.6319  15.6770  15.6834  15.6970
    15.7467  15.7561  15.8173  15.8337  15.9667  16.0226  16.0498  16.1203
    16.1325  16.1576  16.1921  16.2236  16.2287  16.2325  16.3865  16.5235
    16.7467  17.1217  17.1804  17.4960  17.4992  17.6263  17.6426  17.7976
    17.8139  18.0240  18.0452  18.3502  18.3516  18.5457  18.7736  18.7841
    18.7988  19.5667  20.0227  20.8849  20.8867  20.9543  21.3747  22.1700
    22.3241  22.8255  23.7156  24.0718  24.1178  24.1291  24.2332  24.5264
    24.5746  24.7493  25.0805  25.1285  25.2741  25.8613  25.8677  25.9339
    26.0645

[...]

          k = 0.3750-0.3536 0.0000 ( 17776 PWs)   bands (ev):

[...]

          k =-0.5000 0.0000 0.0000 ( 17814 PWs)   bands (ev):

[...]

          k =-0.5000-0.3536 0.0000 ( 17712 PWs)   bands (ev):

     0.3133   0.3133   2.1714   2.1714   4.0243   4.0244   4.0633   4.0633
     4.7357   4.7357   6.7704   6.7704   7.4412   7.4412   7.6683   7.6683
     8.7389   8.7390   9.2745   9.2745   9.9818   9.9818  10.2405  10.2405
    10.2920  10.2921  10.5240  10.5240  11.1466  11.1467  11.1673  11.1673
    11.2957  11.2957  11.3210  11.3210  11.4129  11.4129  11.4810  11.4810
    11.6227  11.6227  11.7301  11.7301  11.7426  11.7426  11.9468  11.9468
    11.9729  11.9729  12.1900  12.1900  12.3233  12.3233  12.3844  12.3844
    12.4823  12.4823  12.4970  12.4970  12.6639  12.6639  12.7047  12.7047
    12.7531  12.7531  12.8526  12.8526  12.9103  12.9103  12.9815  12.9815
    13.0706  13.0706  13.0982  13.0982  13.1365  13.1365  13.1588  13.1588
    13.2166  13.2166  13.3080  13.3080  13.4006  13.4006  13.4404  13.4404
    13.5885  13.5885  13.6210  13.6210  13.6293  13.6293  13.6922  13.6922
    13.7665  13.7665  13.8856  13.8856  13.9776  13.9776  14.0628  14.0628
    14.1090  14.1090  14.1445  14.1445  14.1949  14.1949  14.2404  14.2405
    14.3478  14.3478  14.4454  14.4454  14.5298  14.5298  14.7099  14.7099
    14.8749  14.8749  15.0276  15.0276  15.1834  15.1834  15.2534  15.2534
    15.3041  15.3041  15.3407  15.3407  15.3894  15.3894  15.6032  15.6032
    15.8482  15.8482  16.0915  16.0915  16.2884  16.2884  16.3799  16.3799
    16.5315  16.5315  16.7198  16.7198  17.1839  17.1839  17.3844  17.3844
    17.6267  17.6267  17.6627  17.6627  17.8246  17.8246  18.1619  18.1619
    19.4845  19.4845  19.7542  19.7542  19.8437  19.8437  20.3194  20.3194
    22.9813  22.9813  23.0484  23.0484  23.3305  23.3305  23.8020  23.8020
    24.9244  24.9244  25.8526  25.8526  26.0733  26.0738  26.1959  26.1968
    26.3366

     the Fermi energy is    18.0308 ev

!    total energy              =  -21693.96294813 Ry

     total all-electron energy =  -1064661.653498 Ry
     estimated scf accuracy    <       0.00000077 Ry
     smearing contrib. (-TS)   =      -0.02690904 Ry
     internal energy E=F+TS    =  -21693.93603909 Ry

     The total energy is F=E-TS. E is the sum of the following terms:
     one-electron contribution =      51.13384216 Ry
     hartree contribution      =     397.60578308 Ry
     xc contribution           =    -907.03381853 Ry
     ewald contribution        =   -1842.12021768 Ry
     one-center paw contrib.   =  -19393.52162811 Ry

     convergence has been achieved in  18 iterations

     Forces acting on atoms (cartesian axes, Ry/au):

     atom    1 type  1   force =     1.37475798   -0.00000980    1.93205716
     atom    2 type  1   force =     1.37475798    0.00000980    1.93205716
     atom    3 type  1   force =    -1.49953501    0.00000000    2.12508197
     atom    4 type  1   force =    -1.49953350    0.00000000    2.12508790
     atom    5 type  1   force =     0.01236708    0.00000615    0.04545979
     atom    6 type  1   force =     0.01236708   -0.00000615    0.04545979
     atom    7 type  1   force =    -0.00306752    0.00000000    0.00798718
     atom    8 type  1   force =    -0.00307102    0.00000000    0.00798095
     atom    9 type  1   force =    -0.00066511    0.00000091    0.00270662
     atom   10 type  1   force =    -0.00066511   -0.00000091    0.00270662
     atom   11 type  1   force =     0.00051434    0.00000000   -0.00164595
     atom   12 type  1   force =     0.00051047    0.00000000   -0.00164014
     atom   13 type  1   force =    -0.01436964    0.00000252    0.00404825
     atom   14 type  1   force =    -0.01436964   -0.00000252    0.00404825
     atom   15 type  1   force =     0.27978853    0.00000000   -0.35077881
     atom   16 type  1   force =     0.27979437    0.00000000   -0.35077447
     atom   17 type  1   force =    -0.28004484    0.00001034    0.35091892
     atom   18 type  1   force =    -0.28004484   -0.00001034    0.35091892
     atom   19 type  1   force =     0.01571742    0.00000000   -0.00723416
     atom   20 type  1   force =     0.01571322    0.00000000   -0.00723687
     atom   21 type  1   force =     0.00253931    0.00000576   -0.00551432
     atom   22 type  1   force =     0.00253931   -0.00000576   -0.00551432
     atom   23 type  1   force =    -0.01288996    0.00000000   -0.04484487
     atom   24 type  1   force =    -0.01289019    0.00000000   -0.04485270
     atom   25 type  1   force =     1.49959722   -0.00000095   -2.12596176
     atom   26 type  1   force =     1.49959722    0.00000095   -2.12596176
     atom   27 type  1   force =    -1.37470325    0.00000000   -1.93228279
     atom   28 type  1   force =    -1.37471188    0.00000000   -1.93227653

     Total force =     7.097515     Total SCF correction =     0.003721

     Writing all to output data dir ./pwscf.save/

     General routines

     Parallel routines

   This run was terminated on:   9:22:51   2Mar2024

   JOB DONE.