     Program PWSCF v.7.0 starts on  9Mar2024 at  9:22:37

     R & G space division:  proc/nbgrp/npool/nimage =      10

     Reading input from GSF110R_0.2.in
Warning: card &CELL ignored
Warning: card / ignored

     Current dimensions of program PWSCF are:
     Max number of different atomic species (ntypx) = 10
     Max number of k-points (npk) =  40000
     Max angular momentum in pseudopotentials (lmaxx) =  4
     file Au.pbe-n-kjpaw_psl.1.0.0.UPF: wavefunction(s)  6S 5D renormalized
     Found identity + (  0.0000 -0.5000  0.0000) symmetry
     This is a supercell, fractional translations are disabled

     Using Slab Decomposition

     bravais-lattice index     =            0
     lattice parameter (alat)  =       7.7101  a.u.
     unit-cell volume          =    2979.1368 (a.u.)^3
     number of atoms/cell      =           28
     number of atomic types    =            1
     number of electrons       =       308.00
     number of Kohn-Sham states=          185
     kinetic-energy cutoff     =      50.0000  Ry
     charge density cutoff     =     300.0000  Ry
     scf convergence threshold =      1.0E-06
     mixing beta               =       0.0080
     number of iterations used =            8  plain     mixing
     energy convergence thresh.=      1.0E-04
     force convergence thresh. =      1.0E-03
     Exchange-correlation= SLA  PW   PBX  PBC
                           (   1   4   3   4   0   0   0)
     nstep                     =           50

     celldm(1)=   7.710083  celldm(2)=   0.000000  celldm(3)=   0.000000
     celldm(4)=   0.000000  celldm(5)=   0.000000  celldm(6)=   0.000000

     crystal axes: (cart. coord. in units of alat)
               a(1) = (   1.000000   0.000000   0.000000 )
               a(2) = (   0.000000   1.414214   0.000000 )
               a(3) = (   0.000000   0.000000   4.596194 )

     reciprocal axes: (cart. coord. in units 2 pi/alat)
               b(1) = (  1.000000  0.000000  0.000000 )
               b(2) = (  0.000000  0.707107  0.000000 )
               b(3) = (  0.000000  0.000000  0.217571 )

     PseudoPot. # 1 for Au read from file:
     ./Au.pbe-n-kjpaw_psl.1.0.0.UPF
     MD5 check sum: 4db85c736373c707a97ce4c36c2a9d23
     Pseudo is Projector augmented-wave + core cor, Zval = 11.0
     Generated using &quot;atomic&quot; code by A. Dal Corso  v.6.3
     Shape of augmentation charge: PSQ
     Using radial grid of 1279 points,  6 beta functions with:
                l(1) =   0
                l(2) =   0
                l(3) =   1
                l(4) =   1
                l(5) =   2
                l(6) =   2
     Q(r) pseudized with 0 coefficients

     atomic species   valence    mass     pseudopotential
        Au            11.00   196.96657     Au( 1.00)

     No symmetry found

   Cartesian axes

     site n.     atom                  positions (alat units)
         1           Au  tau(   1) = (   0.5000000   0.3535534   0.0000000  )
         2           Au  tau(   2) = (   0.5000000   1.0606602   0.0000000  )
         3           Au  tau(   3) = (   0.0000000   0.0000000   0.3535534  )
         4           Au  tau(   4) = (   0.0000000   0.7071068   0.3535534  )
         5           Au  tau(   5) = (   0.5000000   0.3535534   0.7071068  )
         6           Au  tau(   6) = (   0.5000000   1.0606602   0.7071068  )
         7           Au  tau(   7) = (   0.0000000   0.0000000   1.0606602  )
         8           Au  tau(   8) = (   0.0000000   0.7071068   1.0606602  )
         9           Au  tau(   9) = (   0.5000000   0.3535534   1.4142136  )
        10           Au  tau(  10) = (   0.5000000   1.0606602   1.4142136  )
        11           Au  tau(  11) = (   0.0000000   0.0000000   1.7677670  )
        12           Au  tau(  12) = (   0.0000000   0.7071068   1.7677670  )
        13           Au  tau(  13) = (   0.5000000   0.3535534   2.1213203  )
        14           Au  tau(  14) = (   0.5000000   1.0606602   2.1213203  )
        15           Au  tau(  15) = (   0.0000000   0.0000000   2.4748737  )
        16           Au  tau(  16) = (   0.0000000   0.7071068   2.4748737  )
        17           Au  tau(  17) = (   0.7000000   0.3535534   2.8284271  )
        18           Au  tau(  18) = (   0.7000000   1.0606602   2.8284271  )
        19           Au  tau(  19) = (   0.2000000   0.0000000   3.1819805  )
        20           Au  tau(  20) = (   0.2000000   0.7071068   3.1819805  )
        21           Au  tau(  21) = (   0.7000000   0.3535534   3.5355339  )
        22           Au  tau(  22) = (   0.7000000   1.0606602   3.5355339  )
        23           Au  tau(  23) = (   0.2000000   0.0000000   3.8890873  )
        24           Au  tau(  24) = (   0.2000000   0.7071068   3.8890873  )
        25           Au  tau(  25) = (   0.7000000   0.3535534   4.2426407  )
        26           Au  tau(  26) = (   0.7000000   1.0606602   4.2426407  )
        27           Au  tau(  27) = (   0.2000000   0.0000000   4.5961941  )
        28           Au  tau(  28) = (   0.2000000   0.7071068   4.5961941  )

     number of k points=    50  Gaussian smearing, width (Ry)=  0.0080
                       cart. coord. in units 2pi/alat
        k(    1) = (   0.0000000   0.0000000   0.0000000), wk =   0.0208333
        k(    2) = (   0.0000000   0.0589256   0.0000000), wk =   0.0416667
        k(    3) = (   0.0000000   0.1178511   0.0000000), wk =   0.0416667
        k(    4) = (   0.0000000   0.1767767   0.0000000), wk =   0.0416667
        k(    5) = (   0.0000000   0.2357023   0.0000000), wk =   0.0416667
        k(    6) = (   0.0000000   0.2946278   0.0000000), wk =   0.0416667
        k(    7) = (   0.0000000  -0.3535534   0.0000000), wk =   0.0208333
        k(    8) = (   0.1250000   0.0000000   0.0000000), wk =   0.0416667
        k(    9) = (   0.1250000   0.0589256   0.0000000), wk =   0.0416667
        k(   10) = (   0.1250000   0.1178511   0.0000000), wk =   0.0416667
        k(   11) = (   0.1250000   0.1767767   0.0000000), wk =   0.0416667
        k(   12) = (   0.1250000   0.2357023   0.0000000), wk =   0.0416667
        k(   13) = (   0.1250000   0.2946278   0.0000000), wk =   0.0416667
        k(   14) = (   0.1250000  -0.3535534   0.0000000), wk =   0.0416667
        k(   15) = (   0.1250000  -0.2946278   0.0000000), wk =   0.0416667
        k(   16) = (   0.1250000  -0.2357023   0.0000000), wk =   0.0416667
        k(   17) = (   0.1250000  -0.1767767   0.0000000), wk =   0.0416667
        k(   18) = (   0.1250000  -0.1178511   0.0000000), wk =   0.0416667
        k(   19) = (   0.1250000  -0.0589256   0.0000000), wk =   0.0416667
        k(   20) = (   0.2500000   0.0000000   0.0000000), wk =   0.0416667
        k(   21) = (   0.2500000   0.0589256   0.0000000), wk =   0.0416667
        k(   22) = (   0.2500000   0.1178511   0.0000000), wk =   0.0416667
        k(   23) = (   0.2500000   0.1767767   0.0000000), wk =   0.0416667
        k(   24) = (   0.2500000   0.2357023   0.0000000), wk =   0.0416667
        k(   25) = (   0.2500000   0.2946278   0.0000000), wk =   0.0416667
        k(   26) = (   0.2500000  -0.3535534   0.0000000), wk =   0.0416667
        k(   27) = (   0.2500000  -0.2946278   0.0000000), wk =   0.0416667
        k(   28) = (   0.2500000  -0.2357023   0.0000000), wk =   0.0416667
        k(   29) = (   0.2500000  -0.1767767   0.0000000), wk =   0.0416667
        k(   30) = (   0.2500000  -0.1178511   0.0000000), wk =   0.0416667
        k(   31) = (   0.2500000  -0.0589256   0.0000000), wk =   0.0416667
        k(   32) = (   0.3750000   0.0000000   0.0000000), wk =   0.0416667
        k(   33) = (   0.3750000   0.0589256   0.0000000), wk =   0.0416667
        k(   34) = (   0.3750000   0.1178511   0.0000000), wk =   0.0416667
        k(   35) = (   0.3750000   0.1767767   0.0000000), wk =   0.0416667
        k(   36) = (   0.3750000   0.2357023   0.0000000), wk =   0.0416667
        k(   37) = (   0.3750000   0.2946278   0.0000000), wk =   0.0416667
        k(   38) = (   0.3750000  -0.3535534   0.0000000), wk =   0.0416667
        k(   39) = (   0.3750000  -0.2946278   0.0000000), wk =   0.0416667
        k(   40) = (   0.3750000  -0.2357023   0.0000000), wk =   0.0416667
        k(   41) = (   0.3750000  -0.1767767   0.0000000), wk =   0.0416667
        k(   42) = (   0.3750000  -0.1178511   0.0000000), wk =   0.0416667
        k(   43) = (   0.3750000  -0.0589256   0.0000000), wk =   0.0416667
        k(   44) = (  -0.5000000   0.0000000   0.0000000), wk =   0.0208333
        k(   45) = (  -0.5000000   0.0589256   0.0000000), wk =   0.0416667
        k(   46) = (  -0.5000000   0.1178511   0.0000000), wk =   0.0416667
        k(   47) = (  -0.5000000   0.1767767   0.0000000), wk =   0.0416667
        k(   48) = (  -0.5000000   0.2357023   0.0000000), wk =   0.0416667
        k(   49) = (  -0.5000000   0.2946278   0.0000000), wk =   0.0416667
        k(   50) = (  -0.5000000  -0.3535534   0.0000000), wk =   0.0208333

     Initial potential from superposition of free atoms

     starting charge     307.9969, renormalised to     308.0000
     Starting wfcs are  252 randomized atomic wfcs
     Checking if some PAW data can be deallocated...

     Self-consistent Calculation

     iteration #  1     ecut=    50.00 Ry     beta= 0.01
     Davidson diagonalization with overlap
     ethr =  1.00E-02,  avg # of iterations =  4.1

     total energy              =  -21693.28954549 Ry
     estimated scf accuracy    <      16.39660122 Ry

[...]

     iteration # 13     ecut=    50.00 Ry     beta= 0.01
     Davidson diagonalization with overlap
     c_bands:  1 eigenvalues not converged
     c_bands:  1 eigenvalues not converged
     c_bands:  1 eigenvalues not converged
     ethr =  5.64E-05,  avg # of iterations =  9.7

[...]

     iteration # 20     ecut=    50.00 Ry     beta= 0.01
     Davidson diagonalization with overlap
     c_bands:  1 eigenvalues not converged
     c_bands:  1 eigenvalues not converged
     c_bands:  1 eigenvalues not converged
     ethr =  3.00E-06,  avg # of iterations =  4.9

[...]

     total energy              =  -21693.39234576 Ry
     estimated scf accuracy    <       0.00000102 Ry

     iteration # 71     ecut=    50.00 Ry     beta= 0.01
     Davidson diagonalization with overlap
     ethr =  3.32E-10,  avg # of iterations =  1.0

     End of self-consistent calculation

          k = 0.0000 0.0000 0.0000 ( 17807 PWs)   bands (ev):

     1.5965   2.1248   2.1248   2.3262   2.8986   3.8142   4.4362   4.4921
     4.4924   5.1047   5.1972   5.1975   5.8601   6.3260   6.5070   6.5074
     7.9428   8.1548   8.2843   9.1333   9.1336   9.2689   9.4768   9.7360
    10.3271  10.4165  10.4218  10.5586  10.5647  10.5831  10.6782  10.9826
    10.9995  11.0022  11.1846  11.2172  11.2192  11.3082  11.3403  11.3430
    11.4017  11.4457  11.4486  11.5284  11.6072  11.6086  11.6347  11.6780
    11.7626  11.7901  11.7965  11.8101  11.9185  11.9420  12.0142  12.1215
    12.1615  12.1973  12.3381  12.3387  12.4101  12.4110  12.4488  12.4663
    12.5846  12.6341  12.6702  12.7196  12.8134  12.9528  12.9571  13.0367
    13.0420  13.0606  13.1264  13.1276  13.2782  13.2808  13.3427  13.4324
    13.4336  13.4625  13.5049  13.5779  13.5794  13.6934  13.7528  13.8817
    13.9037  13.9047  13.9582  14.0880  14.2268  14.2439  14.3253  14.3468
    14.3768  14.4080  14.4669  14.4675  14.4867  14.5403  14.5816  14.6670
    14.6748  14.7551  14.8273  14.8736  14.9379  14.9454  14.9466  14.9871
    15.0259  15.0477  15.1400  15.1683  15.1794  15.3389  15.3702  15.3932
    15.4624  15.4665  15.5279  15.5585  15.6315  15.6769  15.6857  15.7066
    15.7698  15.8448  15.8466  15.8499  15.9377  16.0030  16.0373  16.1335
    16.2078  16.2244  16.2994  16.3069  16.3968  16.4814  16.5522  16.7937
    16.8342  16.8489  17.4573  17.4594  17.6545  17.6680  17.8421  17.8543
    17.9967  18.0066  18.0142  18.3347  18.3352  18.6950  18.7510  18.7703
    18.9770  19.4440  20.0259  20.8371  21.0199  21.0215  21.4372  21.9746
    22.3877  22.8040  23.6116  23.9699  23.9984  23.9989  24.0093  24.5664
    24.5853  24.6279  25.1233  25.1528  25.2528  25.8125  26.0124  26.0233
    26.0807

[...]

          k = 0.3750-0.0589 0.0000 ( 17796 PWs)   bands (ev):

[...]

          k =-0.5000 0.0000 0.0000 ( 17814 PWs)   bands (ev):

[...]

          k =-0.5000-0.3536 0.0000 ( 17712 PWs)   bands (ev):

     1.7955   1.7955   2.8472   2.8472   3.4480   3.4480   3.9564   3.9564
     4.6303   4.6303   6.2609   6.2609   6.2744   6.2744   7.4226   7.4226
     7.9093   7.9093   9.3346   9.3346  10.0347  10.0347  10.2001  10.2001
    10.5838  10.5838  10.6393  10.6394  11.0410  11.0410  11.2116  11.2116
    11.3157  11.3157  11.4350  11.4350  11.4970  11.4970  11.5173  11.5173
    11.6516  11.6516  11.7705  11.7705  11.8597  11.8597  11.9397  11.9397
    11.9565  11.9565  12.2630  12.2630  12.4007  12.4007  12.4673  12.4673
    12.5047  12.5048  12.5147  12.5147  12.6902  12.6902  12.7231  12.7231
    12.7917  12.7917  12.8730  12.8730  12.9638  12.9638  12.9719  12.9719
    13.0425  13.0425  13.1067  13.1067  13.1437  13.1437  13.1731  13.1731
    13.2557  13.2557  13.3102  13.3102  13.3992  13.3993  13.4455  13.4455
    13.5849  13.5849  13.6157  13.6157  13.6708  13.6708  13.7145  13.7145
    13.8334  13.8334  13.9412  13.9412  14.0133  14.0133  14.0871  14.0871
    14.1065  14.1065  14.1818  14.1818  14.2511  14.2511  14.3588  14.3588
    14.4679  14.4679  14.5850  14.5851  14.6675  14.6675  14.8258  14.8258
    14.8924  14.8924  15.0407  15.0407  15.1624  15.1624  15.1755  15.1755
    15.3142  15.3142  15.3781  15.3781  15.5386  15.5386  15.6595  15.6595
    15.9372  15.9372  16.0863  16.0863  16.1693  16.1693  16.2926  16.2926
    16.6347  16.6347  16.9239  16.9239  17.0066  17.0066  17.5635  17.5635
    17.6265  17.6265  17.7341  17.7341  17.8471  17.8471  18.1322  18.1322
    19.5309  19.5309  19.7986  19.7986  19.9095  19.9095  20.2559  20.2559
    23.0326  23.0326  23.1266  23.1266  23.2716  23.2716  23.8836  23.8836
    24.6485  24.6485  25.5229  25.5229  26.1176  26.1178  26.1789  26.1798
    26.3540

     the Fermi energy is    17.9895 ev

!    total energy              =  -21693.39301457 Ry

     total all-electron energy =  -1064661.083564 Ry
     estimated scf accuracy    <       0.00000076 Ry
     smearing contrib. (-TS)   =      -0.00517798 Ry
     internal energy E=F+TS    =  -21693.38783659 Ry

     The total energy is F=E-TS. E is the sum of the following terms:
     one-electron contribution =      57.16765421 Ry
     hartree contribution      =     394.63968885 Ry
     xc contribution           =    -906.98675722 Ry
     ewald contribution        =   -1844.70824048 Ry
     one-center paw contrib.   =  -19393.50018195 Ry

     convergence has been achieved in  71 iterations

     Forces acting on atoms (cartesian axes, Ry/au):

     atom    1 type  1   force =     0.16585178    0.00000134    3.20142627
     atom    2 type  1   force =     0.16585416   -0.00000043    3.20143323
     atom    3 type  1   force =    -1.91706015    0.00000378    3.38648351
     atom    4 type  1   force =    -1.91706222   -0.00000591    3.38649234
     atom    5 type  1   force =     0.01064562    0.00001090    0.03970206
     atom    6 type  1   force =     0.01064869   -0.00000931    0.03970032
     atom    7 type  1   force =    -0.00335257    0.00000675    0.00738701
     atom    8 type  1   force =    -0.00335231   -0.00000183    0.00739115
     atom    9 type  1   force =    -0.00093881   -0.00000198    0.00145099
     atom   10 type  1   force =    -0.00093696    0.00000325    0.00145089
     atom   11 type  1   force =     0.00087095    0.00000877   -0.00079606
     atom   12 type  1   force =     0.00087120   -0.00000902   -0.00079644
     atom   13 type  1   force =    -0.01361526    0.00000076    0.00364329
     atom   14 type  1   force =    -0.01361673   -0.00000232    0.00364883
     atom   15 type  1   force =     0.20503607    0.00000208   -0.20266596
     atom   16 type  1   force =     0.20503224   -0.00000457   -0.20265706
     atom   17 type  1   force =    -0.20548058    0.00000922    0.20248885
     atom   18 type  1   force =    -0.20547904   -0.00000808    0.20249091
     atom   19 type  1   force =     0.01486376    0.00000024   -0.00630830
     atom   20 type  1   force =     0.01486434   -0.00000111   -0.00630820
     atom   21 type  1   force =     0.00284298    0.00000001   -0.00572418
     atom   22 type  1   force =     0.00284740   -0.00000150   -0.00571635
     atom   23 type  1   force =    -0.01089766   -0.00001411   -0.03902578
     atom   24 type  1   force =    -0.01089206    0.00001303   -0.03902942
     atom   25 type  1   force =     1.91667861   -0.00000402   -3.38726819
     atom   26 type  1   force =     1.91668820    0.00000515   -3.38729572
     atom   27 type  1   force =    -0.16546023    0.00000919   -3.20079972
     atom   28 type  1   force =    -0.16545141   -0.00001030   -3.20079827

     Total force =     9.329691     Total SCF correction =     0.001932
     Message from routine bfgs:
     history already reset at previous step: exiting
     Energy error            =      2.2E+00 Ry
     Gradient error          =      3.4E+00 Ry/Bohr

     bfgs converged in   4 scf cycles and   1 bfgs steps
     (criteria: energy <  1.0E-04 Ry, force <  1.0E-03 Ry/Bohr)

     End of BFGS Geometry Optimization

     Final energy             =  -21693.3930145708 Ry

     File ./pwscf.bfgs deleted, as requested
Begin final coordinates

ATOMIC_POSITIONS (angstrom)
Au            2.0400000000        1.4424978336        0.0000000000    0   0   1
Au            2.0400000000        4.3274935009        0.0000000000    0   0   1
Au            0.0000000000        0.0000000000        1.4424978336    0   0   1
Au            0.0000000000        2.8849956672        1.4424978336    0   0   1
Au            2.0400000000        1.4424978336        2.8849956672    0   0   1
Au            2.0400000000        4.3274935009        2.8849956672    0   0   1
Au            0.0000000000        0.0000000000        4.3274935009    0   0   1
Au            0.0000000000        2.8849956672        4.3274935009    0   0   1
Au            2.0400000000        1.4424978336        5.7699913345    0   0   1
Au            2.0400000000        4.3274935009        5.7699913345    0   0   1
Au            0.0000000000        0.0000000000        7.2124891681    0   0   1
Au            0.0000000000        2.8849956672        7.2124891681    0   0   1
Au            2.0400000000        1.4424978336        8.6549870017    0   0   1
Au            2.0400000000        4.3274935009        8.6549870017    0   0   1
Au            0.0000000000        0.0000000000       10.0974848353    0   0   1
Au            0.0000000000        2.8849956672       10.0974848353    0   0   1
Au            2.8560000000        1.4424978336       11.5399826690    0   0   1
Au            2.8560000000        4.3274935009       11.5399826690    0   0   1
Au            0.8160000000        0.0000000000       12.9824805026    0   0   1
Au            0.8160000000        2.8849956672       12.9824805026    0   0   1
Au            2.8560000000        1.4424978336       14.4249783362    0   0   1
Au            2.8560000000        4.3274935009       14.4249783362    0   0   1
Au            0.8160000000        0.0000000000       15.8674761698    0   0   1
Au            0.8160000000        2.8849956672       15.8674761698    0   0   1
Au            2.8560000000        1.4424978336       17.3099740034    0   0   1
Au            2.8560000000        4.3274935009       17.3099740034    0   0   1
Au            0.8160000000        0.0000000000       18.7524718371    0   0   1
Au            0.8160000000        2.8849956672       18.7524718371    0   0   1
End final coordinates

     Writing all to output data dir ./pwscf.save/

     General routines

     Parallel routines

   This run was terminated on:  10:48: 6   9Mar2024

   JOB DONE.