     Program PWSCF v.7.0 starts on 17Mar2024 at  7:26:26

     R & G space division:  proc/nbgrp/npool/nimage =      10

     Reading input from GSF110R_0.3.in
Warning: card &CELL ignored
Warning: card / ignored

     Current dimensions of program PWSCF are:
     Max number of different atomic species (ntypx) = 10
     Max number of k-points (npk) =  40000
     Max angular momentum in pseudopotentials (lmaxx) =  4
     file Au.pbe-n-kjpaw_psl.1.0.0.UPF: wavefunction(s)  6S 5D renormalized
     Found identity + (  0.0000 -0.5000  0.0000) symmetry
     This is a supercell, fractional translations are disabled

     Using Slab Decomposition

     bravais-lattice index     =            0
     lattice parameter (alat)  =       7.7101  a.u.
     unit-cell volume          =    2979.1368 (a.u.)^3
     number of atoms/cell      =           28
     number of atomic types    =            1
     number of electrons       =       308.00
     number of Kohn-Sham states=          185
     kinetic-energy cutoff     =      50.0000  Ry
     charge density cutoff     =     200.0000  Ry
     scf convergence threshold =      1.0E-06
     mixing beta               =       0.1000
     number of iterations used =            8  plain     mixing
     energy convergence thresh.=      1.0E-04
     force convergence thresh. =      1.0E-03
     Exchange-correlation= SLA  PW   PBX  PBC
                           (   1   4   3   4   0   0   0)
     nstep                     =           50

     celldm(1)=   7.710083  celldm(2)=   0.000000  celldm(3)=   0.000000
     celldm(4)=   0.000000  celldm(5)=   0.000000  celldm(6)=   0.000000

     crystal axes: (cart. coord. in units of alat)
               a(1) = (   1.000000   0.000000   0.000000 )
               a(2) = (   0.000000   1.414214   0.000000 )
               a(3) = (   0.000000   0.000000   4.596194 )

     reciprocal axes: (cart. coord. in units 2 pi/alat)
               b(1) = (  1.000000  0.000000  0.000000 )
               b(2) = (  0.000000  0.707107  0.000000 )
               b(3) = (  0.000000  0.000000  0.217571 )

     PseudoPot. # 1 for Au read from file:
     ./Au.pbe-n-kjpaw_psl.1.0.0.UPF
     MD5 check sum: 4db85c736373c707a97ce4c36c2a9d23
     Pseudo is Projector augmented-wave + core cor, Zval = 11.0
     Generated using &quot;atomic&quot; code by A. Dal Corso  v.6.3
     Shape of augmentation charge: PSQ
     Using radial grid of 1279 points,  6 beta functions with:
                l(1) =   0
                l(2) =   0
                l(3) =   1
                l(4) =   1
                l(5) =   2
                l(6) =   2
     Q(r) pseudized with 0 coefficients

     atomic species   valence    mass     pseudopotential
        Au            11.00   196.96657     Au( 1.00)

     No symmetry found

   Cartesian axes

     site n.     atom                  positions (alat units)
         1           Au  tau(   1) = (   0.5000000   0.3535534   0.0000000  )
         2           Au  tau(   2) = (   0.5000000   1.0606602   0.0000000  )
         3           Au  tau(   3) = (   0.0000000   0.0000000   0.3535534  )
         4           Au  tau(   4) = (   0.0000000   0.7071068   0.3535534  )
         5           Au  tau(   5) = (   0.5000000   0.3535534   0.7071068  )
         6           Au  tau(   6) = (   0.5000000   1.0606602   0.7071068  )
         7           Au  tau(   7) = (   0.0000000   0.0000000   1.0606602  )
         8           Au  tau(   8) = (   0.0000000   0.7071068   1.0606602  )
         9           Au  tau(   9) = (   0.5000000   0.3535534   1.4142136  )
        10           Au  tau(  10) = (   0.5000000   1.0606602   1.4142136  )
        11           Au  tau(  11) = (   0.0000000   0.0000000   1.7677670  )
        12           Au  tau(  12) = (   0.0000000   0.7071068   1.7677670  )
        13           Au  tau(  13) = (   0.5000000   0.3535534   2.1213203  )
        14           Au  tau(  14) = (   0.5000000   1.0606602   2.1213203  )
        15           Au  tau(  15) = (   0.0000000   0.0000000   2.4748737  )
        16           Au  tau(  16) = (   0.0000000   0.7071068   2.4748737  )
        17           Au  tau(  17) = (   0.8000000   0.3535534   2.8284271  )
        18           Au  tau(  18) = (   0.8000000   1.0606602   2.8284271  )
        19           Au  tau(  19) = (   0.3000000   0.0000000   3.1819805  )
        20           Au  tau(  20) = (   0.3000000   0.7071068   3.1819805  )
        21           Au  tau(  21) = (   0.8000000   0.3535534   3.5355339  )
        22           Au  tau(  22) = (   0.8000000   1.0606602   3.5355339  )
        23           Au  tau(  23) = (   0.3000000   0.0000000   3.8890873  )
        24           Au  tau(  24) = (   0.3000000   0.7071068   3.8890873  )
        25           Au  tau(  25) = (   0.8000000   0.3535534   4.2426407  )
        26           Au  tau(  26) = (   0.8000000   1.0606602   4.2426407  )
        27           Au  tau(  27) = (   0.3000000   0.0000000   4.5961941  )
        28           Au  tau(  28) = (   0.3000000   0.7071068   4.5961941  )

     number of k points=    50  Gaussian smearing, width (Ry)=  0.2000
                       cart. coord. in units 2pi/alat
        k(    1) = (   0.0000000   0.0000000   0.0000000), wk =   0.0208333
        k(    2) = (   0.0000000   0.0589256   0.0000000), wk =   0.0416667
        k(    3) = (   0.0000000   0.1178511   0.0000000), wk =   0.0416667
        k(    4) = (   0.0000000   0.1767767   0.0000000), wk =   0.0416667
        k(    5) = (   0.0000000   0.2357023   0.0000000), wk =   0.0416667
        k(    6) = (   0.0000000   0.2946278   0.0000000), wk =   0.0416667
        k(    7) = (   0.0000000  -0.3535534   0.0000000), wk =   0.0208333
        k(    8) = (   0.1250000   0.0000000   0.0000000), wk =   0.0416667
        k(    9) = (   0.1250000   0.0589256   0.0000000), wk =   0.0416667
        k(   10) = (   0.1250000   0.1178511   0.0000000), wk =   0.0416667
        k(   11) = (   0.1250000   0.1767767   0.0000000), wk =   0.0416667
        k(   12) = (   0.1250000   0.2357023   0.0000000), wk =   0.0416667
        k(   13) = (   0.1250000   0.2946278   0.0000000), wk =   0.0416667
        k(   14) = (   0.1250000  -0.3535534   0.0000000), wk =   0.0416667
        k(   15) = (   0.1250000  -0.2946278   0.0000000), wk =   0.0416667
        k(   16) = (   0.1250000  -0.2357023   0.0000000), wk =   0.0416667
        k(   17) = (   0.1250000  -0.1767767   0.0000000), wk =   0.0416667
        k(   18) = (   0.1250000  -0.1178511   0.0000000), wk =   0.0416667
        k(   19) = (   0.1250000  -0.0589256   0.0000000), wk =   0.0416667
        k(   20) = (   0.2500000   0.0000000   0.0000000), wk =   0.0416667
        k(   21) = (   0.2500000   0.0589256   0.0000000), wk =   0.0416667
        k(   22) = (   0.2500000   0.1178511   0.0000000), wk =   0.0416667
        k(   23) = (   0.2500000   0.1767767   0.0000000), wk =   0.0416667
        k(   24) = (   0.2500000   0.2357023   0.0000000), wk =   0.0416667
        k(   25) = (   0.2500000   0.2946278   0.0000000), wk =   0.0416667
        k(   26) = (   0.2500000  -0.3535534   0.0000000), wk =   0.0416667
        k(   27) = (   0.2500000  -0.2946278   0.0000000), wk =   0.0416667
        k(   28) = (   0.2500000  -0.2357023   0.0000000), wk =   0.0416667
        k(   29) = (   0.2500000  -0.1767767   0.0000000), wk =   0.0416667
        k(   30) = (   0.2500000  -0.1178511   0.0000000), wk =   0.0416667
        k(   31) = (   0.2500000  -0.0589256   0.0000000), wk =   0.0416667
        k(   32) = (   0.3750000   0.0000000   0.0000000), wk =   0.0416667
        k(   33) = (   0.3750000   0.0589256   0.0000000), wk =   0.0416667
        k(   34) = (   0.3750000   0.1178511   0.0000000), wk =   0.0416667
        k(   35) = (   0.3750000   0.1767767   0.0000000), wk =   0.0416667
        k(   36) = (   0.3750000   0.2357023   0.0000000), wk =   0.0416667
        k(   37) = (   0.3750000   0.2946278   0.0000000), wk =   0.0416667
        k(   38) = (   0.3750000  -0.3535534   0.0000000), wk =   0.0416667
        k(   39) = (   0.3750000  -0.2946278   0.0000000), wk =   0.0416667
        k(   40) = (   0.3750000  -0.2357023   0.0000000), wk =   0.0416667
        k(   41) = (   0.3750000  -0.1767767   0.0000000), wk =   0.0416667
        k(   42) = (   0.3750000  -0.1178511   0.0000000), wk =   0.0416667
        k(   43) = (   0.3750000  -0.0589256   0.0000000), wk =   0.0416667
        k(   44) = (  -0.5000000   0.0000000   0.0000000), wk =   0.0208333
        k(   45) = (  -0.5000000   0.0589256   0.0000000), wk =   0.0416667
        k(   46) = (  -0.5000000   0.1178511   0.0000000), wk =   0.0416667
        k(   47) = (  -0.5000000   0.1767767   0.0000000), wk =   0.0416667
        k(   48) = (  -0.5000000   0.2357023   0.0000000), wk =   0.0416667
        k(   49) = (  -0.5000000   0.2946278   0.0000000), wk =   0.0416667
        k(   50) = (  -0.5000000  -0.3535534   0.0000000), wk =   0.0208333

     Initial potential from superposition of free atoms

     starting charge     307.9969, renormalised to     308.0000
     Starting wfcs are  252 randomized atomic wfcs
     Checking if some PAW data can be deallocated...

     Self-consistent Calculation

     iteration #  1     ecut=    50.00 Ry     beta= 0.10
     Davidson diagonalization with overlap
     ethr =  1.00E-02,  avg # of iterations =  4.1

     total energy              =  -21692.61847445 Ry
     estimated scf accuracy    <      12.06322751 Ry

[...]

     iteration #  7     ecut=    50.00 Ry     beta= 0.10
     Davidson diagonalization with overlap
     c_bands:  1 eigenvalues not converged
     c_bands:  1 eigenvalues not converged
     c_bands:  1 eigenvalues not converged
     ethr =  1.01E-04,  avg # of iterations =  7.5

[...]

     End of self-consistent calculation

          k = 0.0000 0.0000 0.0000 ( 17807 PWs)   bands (ev):

    -1.6932  -1.6932   0.5683   1.1438   1.7951   1.7951   2.0773   4.0578
     4.5037   5.6771   6.1329   6.1812   6.1812   7.9323   8.1694   8.4761
     8.4765   8.8599   8.8923   8.9995   9.4483   9.6369   9.7882   9.8647
     9.8738   9.9255   9.9331  10.1270  10.4768  10.4789  10.4883  10.5468
    10.7769  10.8786  10.9105  10.9783  11.0401  11.0510  11.0782  11.1599
    11.2093  11.2498  11.2520  11.2876  11.3294  11.3662  11.4754  11.5136
    11.5624  11.6035  11.6572  11.6640  11.7371  11.8101  11.8401  11.9376
    12.0062  12.0120  12.1539  12.1744  12.2123  12.2671  12.4103  12.5622
    12.5773  12.6848  12.6881  12.7366  12.7840  12.8214  12.8413  12.8432
    12.9171  13.0045  13.0659  13.0724  13.0818  13.0933  13.1332  13.1892
    13.2492  13.2526  13.2695  13.3436  13.3973  13.5293  13.5761  13.5923
    13.6683  13.7628  13.9130  13.9796  13.9939  14.0924  14.1120  14.1411
    14.1851  14.2680  14.2946  14.3043  14.3529  14.4311  14.4711  14.4916
    14.5140  14.6787  14.6956  14.7106  14.7298  14.7335  14.7705  14.8158
    14.8211  14.8335  14.9144  14.9710  15.0403  15.0960  15.0973  15.1312
    15.2074  15.2599  15.2867  15.3064  15.3198  15.4166  15.5039  15.5201
    15.5398  15.5840  15.6390  15.6782  15.7164  15.7304  15.8338  15.8491
[...]
     atom    8 type  1   force =    -0.00051225   -0.00000074    0.00613814
     atom    9 type  1   force =    -0.00002331    0.00000165    0.00105383
     atom   10 type  1   force =    -0.00002169   -0.00000276    0.00104922
     atom   11 type  1   force =     0.00042979    0.00000135   -0.00220965
     atom   12 type  1   force =     0.00042890   -0.00000110   -0.00220814
     atom   13 type  1   force =    -0.01311585   -0.00000093    0.00321908
     atom   14 type  1   force =    -0.01311107    0.00000064    0.00321858
     atom   15 type  1   force =     0.32343318    0.00000411   -0.53078159
     atom   16 type  1   force =     0.32343550    0.00000000   -0.53078280
     atom   17 type  1   force =    -0.32336544    0.00000002    0.53041992
     atom   18 type  1   force =    -0.32336748   -0.00000138    0.53042082
     atom   19 type  1   force =     0.01342833   -0.00000192   -0.00555340
     atom   20 type  1   force =     0.01342619    0.00000128   -0.00555070
     atom   21 type  1   force =     0.00007808    0.00000100   -0.00373538
     atom   22 type  1   force =     0.00007924    0.00000137   -0.00373060
     atom   23 type  1   force =    -0.01370779    0.00000088   -0.04856802
     atom   24 type  1   force =    -0.01370782   -0.00000173   -0.04856907
     atom   25 type  1   force =     1.02520328    0.00000064   -1.25346325
     atom   26 type  1   force =     1.02519457    0.00000078   -1.25345839
     atom   27 type  1   force =    -2.63783713   -0.00000288   -1.08007707
     atom   28 type  1   force =    -2.63785014    0.00000390   -1.08008238

     Total force =     3.476700     Total SCF correction =     0.001114

     BFGS Geometry Optimization
     Energy error            =      0.0E+00 Ry
     Gradient error          =      1.3E+00 Ry/Bohr

     number of scf cycles    =   1
     number of bfgs steps    =   0

     energy             new  =  -21694.5882770203 Ry

     new trust radius        =       0.5000000000 bohr
     new conv_thr            =       0.0000010000 Ry

ATOMIC_POSITIONS (angstrom)
Au            2.0400000000        1.4424978336        0.2279533844    0   0   1
Au            2.0400000000        4.3274935009        0.2279514177    0   0   1
Au            0.0000000000        0.0000000000        1.7070861999    0   0   1
Au            0.0000000000        2.8849956672        1.7070864391    0   0   1
Au            2.0400000000        1.4424978336        2.8955352167    0   0   1
Au            2.0400000000        4.3274935009        2.8955352532    0   0   1
Au            0.0000000000        0.0000000000        4.3287889679    0   0   1
Au            0.0000000000        2.8849956672        4.3287890349    0   0   1
Au            2.0400000000        1.4424978336        5.7702137596    0   0   1
Au            2.0400000000        4.3274935009        5.7702127859    0   0   1
Au            0.0000000000        0.0000000000        7.2120227936    0   0   1
Au            0.0000000000        2.8849956672        7.2120231114    0   0   1
Au            2.0400000000        1.4424978336        8.6556664295    0   0   1
Au            2.0400000000        4.3274935009        8.6556663256    0   0   1
Au            0.0000000000        0.0000000000        9.9854565108    0   0   1
Au            0.0000000000        2.8849956672        9.9854562548    0   0   1
Au            3.2640000000        1.4424978336       11.6519346577    0   0   1
Au            3.2640000000        4.3274935009       11.6519348472    0   0   1
Au            1.2240000000        0.0000000000       12.9813083864    0   0   1
Au            1.2240000000        2.8849956672       12.9813089549    0   0   1
Au            3.2640000000        1.4424978336       14.4241899351    0   0   1
Au            3.2640000000        4.3274935009       14.4241909438    0   0   1
Au            1.2240000000        0.0000000000       15.8572252605    0   0   1
Au            1.2240000000        2.8849956672       15.8572250379    0   0   1
Au            3.2640000000        1.4424978336       17.0454143612    0   0   1
Au            3.2640000000        4.3274935009       17.0454153868    0   0   1
Au            1.2240000000        0.0000000000       18.5245075913    0   0   1
Au            1.2240000000        2.8849956672       18.5245064708    0   0   1

     Writing config-only to output data dir ./pwscf.save/
     NEW-OLD atomic charge density approx. for the potential

[...]

     Total force =     3.519320     Total SCF correction =     0.003743
     Energy error            =      3.2E+00 Ry
     Gradient error          =      1.7E+00 Ry/Bohr

[...]

     energy             old  =  -21695.4408779548 Ry
     energy             new  =  -21698.6629901214 Ry

     CASE: energy            _new < energy            _old

[...]

     WARNING: bfgs curvature condition failed, Theta= 0.879
     new trust radius        =       0.8000000000 bohr
     new conv_thr            =       0.0000010000 Ry

[...]

     CASE: energy            _new < energy            _old

[...]

     CASE: energy            _new > energy            _old

[...]

     Total force =     0.868411     Total SCF correction =     0.002849
     Energy error            =      2.9E-03 Ry
     Gradient error          =      4.1E-01 Ry/Bohr

[...]

     energy             old  =  -21703.5923407501 Ry
     energy             new  =  -21703.5894088765 Ry

     CASE: energy            _new > energy            _old

[...]

     Threshold (ethr) on eigenvalues was too large:
     Diagonalizing with lowered threshold

     Davidson diagonalization with overlap
     ethr =  5.05E-08,  avg # of iterations =  2.7

[...]

     Total force =     0.868605     Total SCF correction =     0.001844

     BFGS Geometry Optimization
     Energy error            =      0.0E+00 Ry
     Gradient error          =      4.1E-01 Ry/Bohr

     number of scf cycles    =   1
     number of bfgs steps    =   0

     energy             new  =  -21703.5917201180 Ry

     new trust radius        =       0.4070830769 bohr
     new conv_thr            =       0.0000010000 Ry

ATOMIC_POSITIONS (angstrom)
Au            2.0400000000        1.4424978336        0.7104017968    0   0   1
Au            2.0400000000        4.3274935009        0.7103693193    0   0   1
Au            0.0000000000        0.0000000000        1.7372456417    0   0   1
Au            0.0000000000        2.8849956672        1.7372861708    0   0   1
Au            2.0400000000        1.4424978336        3.1456263553    0   0   1
Au            2.0400000000        4.3274935009        3.1456314287    0   0   1
Au            0.0000000000        0.0000000000        4.3828288098    0   0   1
Au            0.0000000000        2.8849956672        4.3828085539    0   0   1
Au            2.0400000000        1.4424978336        5.7795706588    0   0   1
Au            2.0400000000        4.3274935009        5.7796371649    0   0   1
Au            0.0000000000        0.0000000000        7.2076604073    0   0   1
Au            0.0000000000        2.8849956672        7.2076329176    0   0   1
Au            2.0400000000        1.4424978336        8.6607877907    0   0   1
Au            2.0400000000        4.3274935009        8.6608022815    0   0   1
Au            0.0000000000        0.0000000000        9.9158872644    0   0   1
Au            0.0000000000        2.8849956672        9.9158923178    0   0   1
Au            3.0264531548        1.4424978336       11.7105821322    0   0   1
Au            3.0264531548        4.3274935009       11.7105597643    0   0   1
Au            0.9864531548        0.0000000000       12.9673926684    0   0   1
Au            0.9864531548        2.8849956672       12.9674805739    0   0   1
Au            3.0264531548        1.4424978336       14.3811977723    0   0   1
Au            3.0264531548        4.3274935009       14.3811737108    0   0   1
Au            0.9864531548        0.0000000000       15.6141872115    0   0   1
Au            0.9864531548        2.8849956672       15.6141812748    0   0   1
Au            3.0264531548        1.4424978336       17.0156687957    0   0   1
Au            3.0264531548        4.3274935009       17.0156672714    0   0   1
Au            0.9864531548        0.0000000000       18.0382007542    0   0   1
Au            0.9864531548        2.8849956672       18.0382449096    0   0   1

     Writing config-only to output data dir ./pwscf.save/
     NEW-OLD atomic charge density approx. for the potential

     Self-consistent Calculation

[...]

     iteration # 10     ecut=    50.00 Ry     beta= 0.10
     Davidson diagonalization with overlap
     c_bands:  1 eigenvalues not converged
     ethr =  2.68E-06,  avg # of iterations =  6.5

[...]

     total energy              =  -21704.06431705 Ry
     estimated scf accuracy    <       0.00000170 Ry

     iteration # 21     ecut=    50.00 Ry     beta= 0.10
     Davidson diagonalization with overlap
     ethr =  5.53E-10,  avg # of iterations =  6.5

     End of self-consistent calculation

[...]

          k = 0.3750-0.0589 0.0000 ( 17796 PWs)   bands (ev):

[...]

          k =-0.5000-0.3536 0.0000 ( 17712 PWs)   bands (ev):

     8.5310   8.5310   8.5676   8.5676   9.4939   9.4940   9.5597   9.5597
     9.8983   9.8983  10.0923  10.0924  10.2393  10.2394  10.2945  10.2945
    10.3593  10.3593  10.5368  10.5368  10.6378  10.6379  10.7223  10.7223
    10.7782  10.7783  10.9485  10.9486  10.9799  10.9799  11.0996  11.0996
    11.2354  11.2355  11.5282  11.5283  11.5425  11.5425  11.6077  11.6077
    11.6620  11.6620  11.7429  11.7429  11.7797  11.7797  11.8058  11.8058
    11.8845  11.8846  11.9751  11.9752  11.9972  11.9973  12.0345  12.0345
    12.0593  12.0593  12.1040  12.1040  12.1620  12.1620  12.3287  12.3287
    12.3641  12.3641  12.4292  12.4292  12.5125  12.5125  12.6373  12.6373
    12.6476  12.6476  12.7075  12.7076  12.7889  12.7889  12.8538  12.8538
    12.9132  12.9132  12.9415  12.9415  13.0322  13.0322  13.1248  13.1248
    13.2044  13.2044  13.3078  13.3078  13.3811  13.3811  13.4507  13.4507
    13.4952  13.4952  13.5195  13.5195  13.5806  13.5807  13.6386  13.6386
    13.7196  13.7197  13.7323  13.7323  13.9221  13.9221  13.9435  13.9436
    14.0723  14.0723  14.2091  14.2091  14.3353  14.3353  14.4214  14.4214
    14.4788  14.4788  14.5364  14.5364  14.6477  14.6477  14.7905  14.7905
    15.0580  15.0580  15.1660  15.1660  15.2542  15.2542  15.3785  15.3786
    15.4477  15.4478  15.5341  15.5341  15.5557  15.5557  15.7009  15.7009
    16.2299  16.2299  16.3109  16.3109  16.4555  16.4555  16.6197  16.6197
    17.4552  17.4553  17.4872  17.4873  17.6693  17.6693  17.7331  17.7331
    19.4504  19.4504  19.6006  19.6006  19.6310  19.6310  19.7397  19.7398
    22.3080  22.3081  23.1310  23.1311  23.3492  23.3493  23.8964  23.8965
    25.3927  25.3927  25.6113  25.6113  25.9456  25.9461  26.0191  26.0191
    26.1199

     the Fermi energy is    18.2988 ev

!    total energy              =  -21704.06431887 Ry

     total all-electron energy =  -1064671.754868 Ry
     estimated scf accuracy    <       0.00000059 Ry
     smearing contrib. (-TS)   =      -3.20005112 Ry
     internal energy E=F+TS    =  -21700.86426775 Ry

     The total energy is F=E-TS. E is the sum of the following terms:
     one-electron contribution =     313.26073604 Ry
     hartree contribution      =     267.04728112 Ry
     xc contribution           =    -901.57035193 Ry
     ewald contribution        =   -1988.07285929 Ry
     one-center paw contrib.   =  -19391.52907370 Ry

     convergence has been achieved in  21 iterations

     Forces acting on atoms (cartesian axes, Ry/au):

     atom    1 type  1   force =     0.27826168   -0.00002176    0.22190945
     atom    2 type  1   force =     0.27828521    0.00002256    0.22197249
     atom    3 type  1   force =    -0.03670835   -0.00000407    0.03460816
     atom    4 type  1   force =    -0.03670922    0.00000409    0.03458817
     atom    5 type  1   force =     0.00122664   -0.00000496    0.09541366
     atom    6 type  1   force =     0.00122761    0.00000382    0.09540621
     atom    7 type  1   force =     0.00002050   -0.00000324    0.05381028
     atom    8 type  1   force =     0.00001967    0.00000432    0.05382834
     atom    9 type  1   force =     0.00027948   -0.00000052    0.04897037
     atom   10 type  1   force =     0.00027992    0.00000038    0.04894052
     atom   11 type  1   force =     0.00084917    0.00000306   -0.01773337
     atom   12 type  1   force =     0.00084910   -0.00000332   -0.01772303
     atom   13 type  1   force =    -0.00950360    0.00000245    0.00005897
     atom   14 type  1   force =    -0.00950365   -0.00000204    0.00006146
     atom   15 type  1   force =     0.07645416    0.00000557   -0.05176669
     atom   16 type  1   force =     0.07645405   -0.00000694   -0.05177476
     atom   17 type  1   force =    -0.07617868    0.00000668    0.04038376
     atom   18 type  1   force =    -0.07618419   -0.00000455    0.04039365
     atom   19 type  1   force =     0.00925691    0.00000021   -0.04800969
     atom   20 type  1   force =     0.00925612   -0.00000012   -0.04804759
     atom   21 type  1   force =    -0.00079052   -0.00000507   -0.02751740
     atom   22 type  1   force =    -0.00079100    0.00000719   -0.02750822
     atom   23 type  1   force =    -0.00153051   -0.00000670   -0.10565403
     atom   24 type  1   force =    -0.00153311    0.00000079   -0.10559014
     atom   25 type  1   force =     0.03712426    0.00000669   -0.03270780
     atom   26 type  1   force =     0.03712684   -0.00000544   -0.03272212
     atom   27 type  1   force =    -0.27875097    0.00002005   -0.21175711
     atom   28 type  1   force =    -0.27878752   -0.00001913   -0.21183355

     Total force =     0.509164     Total SCF correction =     0.002417
     Message from routine bfgs:
     history already reset at previous step: exiting
     Energy error            =      8.6E+00 Ry
     Gradient error          =      2.2E-01 Ry/Bohr

     bfgs converged in   4 scf cycles and   1 bfgs steps
     (criteria: energy <  1.0E-04 Ry, force <  1.0E-03 Ry/Bohr)

     End of BFGS Geometry Optimization

     Final energy             =  -21704.0643188693 Ry

     File ./pwscf.bfgs deleted, as requested
Begin final coordinates

ATOMIC_POSITIONS (angstrom)
Au            2.0400000000        1.4424978336        0.7104017968    0   0   1
Au            2.0400000000        4.3274935009        0.7103693193    0   0   1
Au            0.0000000000        0.0000000000        1.7372456417    0   0   1
Au            0.0000000000        2.8849956672        1.7372861708    0   0   1
Au            2.0400000000        1.4424978336        3.1456263553    0   0   1
Au            2.0400000000        4.3274935009        3.1456314287    0   0   1
Au            0.0000000000        0.0000000000        4.3828288098    0   0   1
Au            0.0000000000        2.8849956672        4.3828085539    0   0   1
Au            2.0400000000        1.4424978336        5.7795706588    0   0   1
Au            2.0400000000        4.3274935009        5.7796371649    0   0   1
Au            0.0000000000        0.0000000000        7.2076604073    0   0   1
Au            0.0000000000        2.8849956672        7.2076329176    0   0   1
Au            2.0400000000        1.4424978336        8.6607877907    0   0   1
Au            2.0400000000        4.3274935009        8.6608022815    0   0   1
Au            0.0000000000        0.0000000000        9.9158872644    0   0   1
Au            0.0000000000        2.8849956672        9.9158923178    0   0   1
Au            3.0264531548        1.4424978336       11.7105821322    0   0   1
Au            3.0264531548        4.3274935009       11.7105597643    0   0   1
Au            0.9864531548        0.0000000000       12.9673926684    0   0   1
Au            0.9864531548        2.8849956672       12.9674805739    0   0   1
Au            3.0264531548        1.4424978336       14.3811977723    0   0   1
Au            3.0264531548        4.3274935009       14.3811737108    0   0   1
Au            0.9864531548        0.0000000000       15.6141872115    0   0   1
Au            0.9864531548        2.8849956672       15.6141812748    0   0   1
Au            3.0264531548        1.4424978336       17.0156687957    0   0   1
Au            3.0264531548        4.3274935009       17.0156672714    0   0   1
Au            0.9864531548        0.0000000000       18.0382007542    0   0   1
Au            0.9864531548        2.8849956672       18.0382449096    0   0   1
End final coordinates

     Writing all to output data dir ./pwscf.save/

     General routines

     Parallel routines

   This run was terminated on:  11:35:20  17Mar2024

   JOB DONE.