     Program PWSCF v.7.0 starts on  2Mar2024 at  8:26:52

     R & G space division:  proc/nbgrp/npool/nimage =      10

     Reading input from GSF110_0.1.in
Warning: card &CELL ignored
Warning: card / ignored

     Current dimensions of program PWSCF are:
     Max number of different atomic species (ntypx) = 10
     Max number of k-points (npk) =  40000
     Max angular momentum in pseudopotentials (lmaxx) =  4

     File ./pwscf.bfgs deleted, as requested
     file Au.pbe-n-kjpaw_psl.1.0.0.UPF: wavefunction(s)  6S 5D renormalized
     Found identity + (  0.0000 -0.5000  0.0000) symmetry
     This is a supercell, fractional translations are disabled
     Message from routine setup:
     using ibrav=0 with symmetry is DISCOURAGED, use correct ibrav instead

     Using Slab Decomposition

     bravais-lattice index     =            0
     lattice parameter (alat)  =       7.7101  a.u.
     unit-cell volume          =    2979.1368 (a.u.)^3
     number of atoms/cell      =           28
     number of atomic types    =            1
     number of electrons       =       308.00
     number of Kohn-Sham states=          185
     kinetic-energy cutoff     =      50.0000  Ry
     charge density cutoff     =     200.0000  Ry
     scf convergence threshold =      1.0E-06
     mixing beta               =       0.1000
     number of iterations used =            8  plain     mixing
     Exchange-correlation= SLA  PW   PBX  PBC
                           (   1   4   3   4   0   0   0)

     celldm(1)=   7.710083  celldm(2)=   0.000000  celldm(3)=   0.000000
     celldm(4)=   0.000000  celldm(5)=   0.000000  celldm(6)=   0.000000

     crystal axes: (cart. coord. in units of alat)
               a(1) = (   1.000000   0.000000   0.000000 )
               a(2) = (   0.000000   1.414214   0.000000 )
               a(3) = (   0.000000   0.000000   4.596194 )

     reciprocal axes: (cart. coord. in units 2 pi/alat)
               b(1) = (  1.000000  0.000000  0.000000 )
               b(2) = (  0.000000  0.707107  0.000000 )
               b(3) = (  0.000000  0.000000  0.217571 )

     PseudoPot. # 1 for Au read from file:
     ./Au.pbe-n-kjpaw_psl.1.0.0.UPF
     MD5 check sum: 4db85c736373c707a97ce4c36c2a9d23
     Pseudo is Projector augmented-wave + core cor, Zval = 11.0
     Generated using &quot;atomic&quot; code by A. Dal Corso  v.6.3
     Shape of augmentation charge: PSQ
     Using radial grid of 1279 points,  6 beta functions with:
                l(1) =   0
                l(2) =   0
                l(3) =   1
                l(4) =   1
                l(5) =   2
                l(6) =   2
     Q(r) pseudized with 0 coefficients

     atomic species   valence    mass     pseudopotential
        Au            11.00   196.96657     Au( 1.00)

      2 Sym. Ops. (no inversion) found

   Cartesian axes

     site n.     atom                  positions (alat units)
         1           Au  tau(   1) = (   0.5000000   0.3535534   0.0000000  )
         2           Au  tau(   2) = (   0.5000000   1.0606602   0.0000000  )
         3           Au  tau(   3) = (   0.0000000   0.0000000   0.3535534  )
         4           Au  tau(   4) = (   0.0000000   0.7071068   0.3535534  )
         5           Au  tau(   5) = (   0.5000000   0.3535534   0.7071068  )
         6           Au  tau(   6) = (   0.5000000   1.0606602   0.7071068  )
         7           Au  tau(   7) = (   0.0000000   0.0000000   1.0606602  )
         8           Au  tau(   8) = (   0.0000000   0.7071068   1.0606602  )
         9           Au  tau(   9) = (   0.5000000   0.3535534   1.4142136  )
        10           Au  tau(  10) = (   0.5000000   1.0606602   1.4142136  )
        11           Au  tau(  11) = (   0.0000000   0.0000000   1.7677670  )
        12           Au  tau(  12) = (   0.0000000   0.7071068   1.7677670  )
        13           Au  tau(  13) = (   0.5000000   0.3535534   2.1213203  )
        14           Au  tau(  14) = (   0.5000000   1.0606602   2.1213203  )
        15           Au  tau(  15) = (   0.0000000   0.0000000   2.4748737  )
        16           Au  tau(  16) = (   0.0000000   0.7071068   2.4748737  )
        17           Au  tau(  17) = (   0.6000000   0.3535534   2.8284271  )
        18           Au  tau(  18) = (   0.6000000   1.0606602   2.8284271  )
        19           Au  tau(  19) = (   0.1000000   0.0000000   3.1819805  )
        20           Au  tau(  20) = (   0.1000000   0.7071068   3.1819805  )
        21           Au  tau(  21) = (   0.6000000   0.3535534   3.5355339  )
        22           Au  tau(  22) = (   0.6000000   1.0606602   3.5355339  )
        23           Au  tau(  23) = (   0.1000000   0.0000000   3.8890873  )
        24           Au  tau(  24) = (   0.1000000   0.7071068   3.8890873  )
        25           Au  tau(  25) = (   0.6000000   0.3535534   4.2426407  )
        26           Au  tau(  26) = (   0.6000000   1.0606602   4.2426407  )
        27           Au  tau(  27) = (   0.1000000   0.0000000   4.5961941  )
        28           Au  tau(  28) = (   0.1000000   0.7071068   4.5961941  )

     number of k points=    35  Gaussian smearing, width (Ry)=  0.0200
                       cart. coord. in units 2pi/alat
        k(    1) = (   0.0000000   0.0000000   0.0000000), wk =   0.0208333
        k(    2) = (   0.0000000   0.0589256   0.0000000), wk =   0.0416667
        k(    3) = (   0.0000000   0.1178511   0.0000000), wk =   0.0416667
        k(    4) = (   0.0000000   0.1767767   0.0000000), wk =   0.0416667
        k(    5) = (   0.0000000   0.2357023   0.0000000), wk =   0.0416667
        k(    6) = (   0.0000000   0.2946278   0.0000000), wk =   0.0416667
        k(    7) = (   0.0000000  -0.3535534   0.0000000), wk =   0.0208333
        k(    8) = (   0.1250000   0.0000000   0.0000000), wk =   0.0416667
        k(    9) = (   0.1250000   0.0589256   0.0000000), wk =   0.0833333
        k(   10) = (   0.1250000   0.1178511   0.0000000), wk =   0.0833333
        k(   11) = (   0.1250000   0.1767767   0.0000000), wk =   0.0833333
        k(   12) = (   0.1250000   0.2357023   0.0000000), wk =   0.0833333
        k(   13) = (   0.1250000   0.2946278   0.0000000), wk =   0.0833333
        k(   14) = (   0.1250000  -0.3535534   0.0000000), wk =   0.0416667
        k(   15) = (   0.2500000   0.0000000   0.0000000), wk =   0.0416667
        k(   16) = (   0.2500000   0.0589256   0.0000000), wk =   0.0833333
        k(   17) = (   0.2500000   0.1178511   0.0000000), wk =   0.0833333
        k(   18) = (   0.2500000   0.1767767   0.0000000), wk =   0.0833333
        k(   19) = (   0.2500000   0.2357023   0.0000000), wk =   0.0833333
        k(   20) = (   0.2500000   0.2946278   0.0000000), wk =   0.0833333
        k(   21) = (   0.2500000  -0.3535534   0.0000000), wk =   0.0416667
        k(   22) = (   0.3750000   0.0000000   0.0000000), wk =   0.0416667
        k(   23) = (   0.3750000   0.0589256   0.0000000), wk =   0.0833333
        k(   24) = (   0.3750000   0.1178511   0.0000000), wk =   0.0833333
        k(   25) = (   0.3750000   0.1767767   0.0000000), wk =   0.0833333
        k(   26) = (   0.3750000   0.2357023   0.0000000), wk =   0.0833333
        k(   27) = (   0.3750000   0.2946278   0.0000000), wk =   0.0833333
        k(   28) = (   0.3750000  -0.3535534   0.0000000), wk =   0.0416667
        k(   29) = (  -0.5000000   0.0000000   0.0000000), wk =   0.0208333
        k(   30) = (  -0.5000000   0.0589256   0.0000000), wk =   0.0416667
        k(   31) = (  -0.5000000   0.1178511   0.0000000), wk =   0.0416667
        k(   32) = (  -0.5000000   0.1767767   0.0000000), wk =   0.0416667
        k(   33) = (  -0.5000000   0.2357023   0.0000000), wk =   0.0416667
        k(   34) = (  -0.5000000   0.2946278   0.0000000), wk =   0.0416667
        k(   35) = (  -0.5000000  -0.3535534   0.0000000), wk =   0.0208333

     Initial potential from superposition of free atoms

     starting charge     307.9969, renormalised to     308.0000
     Starting wfcs are  252 randomized atomic wfcs
     Checking if some PAW data can be deallocated...

     Self-consistent Calculation

     iteration #  1     ecut=    50.00 Ry     beta= 0.10
     Davidson diagonalization with overlap
     ethr =  1.00E-02,  avg # of iterations =  4.2

     total energy              =  -21684.58739975 Ry
     estimated scf accuracy    <      29.53293623 Ry

[...]

     iteration #  8     ecut=    50.00 Ry     beta= 0.10
     Davidson diagonalization with overlap
     c_bands:  2 eigenvalues not converged
     c_bands:  2 eigenvalues not converged
     c_bands:  1 eigenvalues not converged
     c_bands:  2 eigenvalues not converged
     c_bands:  1 eigenvalues not converged
     c_bands:  4 eigenvalues not converged
     c_bands:  1 eigenvalues not converged
     c_bands:  2 eigenvalues not converged
     c_bands:  1 eigenvalues not converged
     c_bands:  3 eigenvalues not converged
     c_bands:  2 eigenvalues not converged
     c_bands:  1 eigenvalues not converged
     c_bands:  1 eigenvalues not converged
     c_bands:  1 eigenvalues not converged
     c_bands:  3 eigenvalues not converged
     ethr =  1.55E-05,  avg # of iterations = 16.4

[...]

     iteration # 11     ecut=    50.00 Ry     beta= 0.10
     Davidson diagonalization with overlap
     c_bands:  1 eigenvalues not converged
     c_bands:  1 eigenvalues not converged
     c_bands:  1 eigenvalues not converged
     c_bands:  1 eigenvalues not converged
     ethr =  8.62E-07,  avg # of iterations =  9.8

[...]

     total energy              =  -21689.52521301 Ry
     estimated scf accuracy    <       0.00000342 Ry

     iteration # 20     ecut=    50.00 Ry     beta= 0.10
     Davidson diagonalization with overlap
     ethr =  1.11E-09,  avg # of iterations =  1.5

     End of self-consistent calculation

          k = 0.0000 0.0000 0.0000 ( 17807 PWs)   bands (ev):

     0.7892   0.8547   0.9259   0.9265   1.9819   2.2089   2.2106   2.4193
     2.9086   3.0095   3.4471   3.4493   3.8774   5.0889   5.8465   5.8476
     5.9177   7.0186   7.0199   7.7174   8.3783   8.3926   9.6627   9.6850
    10.0741  10.3394  10.3404  10.4197  10.9045  10.9807  10.9818  11.0660
    11.2230  11.2313  11.2517  11.2959  11.3078  11.3343  11.4537  11.4613
    11.4686  11.5462  11.5671  11.6028  11.6755  11.6991  11.7231  11.8082
    11.8480  11.8582  11.8858  12.0035  12.0666  12.0946  12.0973  12.0998
    12.1113  12.3184  12.3682  12.3907  12.4329  12.5952  12.6138  12.6780
    12.6998  12.7648  12.8008  12.8209  12.9130  12.9813  13.0810  13.0818
    13.1213  13.1466  13.1688  13.1947  13.2094  13.2290  13.2470  13.4234
    13.4689  13.5433  13.5900  13.6988  13.7032  13.8185  13.8647  13.9521
    13.9892  14.0285  14.1367  14.2212  14.2533  14.2585  14.3218  14.4237
    14.4747  14.4870  14.5025  14.5433  14.6780  14.7490  14.7676  14.7707
    14.8065  14.8126  14.8734  14.8915  14.9007  14.9790  15.0235  15.0464
    15.1199  15.2026  15.2601  15.2811  15.3249  15.3266  15.4318  15.5154
    15.5199  15.5842  15.6173  15.6293  15.6961  15.7336  15.8214  15.8468
    15.8618  15.9086  15.9783  15.9846  16.0429  16.0955  16.2064  16.2075
    16.2194  16.3758  16.3796  16.4878  16.4902  16.6972  16.6987  16.9572
    16.9660  17.1147  17.3485  17.3497  17.4137  17.7285  17.7294  17.8813
    17.8883  18.0349  18.0475  18.1157  18.3750  18.3753  18.8264  18.8334
    19.4346  19.6836  20.3097  20.5430  21.3127  21.3128  21.5856  22.3622
    22.4766  23.0874  23.3461  23.4126  23.4140  23.5811  24.0597  24.7360
    24.7376  24.7967  24.8008  25.0005  25.3622  25.8684  25.9988  26.0554
    26.0708

[...]

          k = 0.3750-0.3536 0.0000 ( 17776 PWs)   bands (ev):

[...]

          k =-0.5000 0.0000 0.0000 ( 17814 PWs)   bands (ev):

[...]

          k =-0.5000-0.3536 0.0000 ( 17712 PWs)   bands (ev):

     0.9772   0.9772   1.3303   1.3303   1.7746   1.7746   2.0623   2.0623
     3.3137   3.3137   3.4356   3.4356   5.1054   5.1054   6.2749   6.2749
     6.3072   6.3072   7.5830   7.5830  10.0738  10.0739  10.1106  10.1106
    10.7080  10.7080  11.0213  11.0213  11.0825  11.0825  11.0925  11.0925
    11.2006  11.2006  11.4364  11.4364  11.5674  11.5674  11.6262  11.6262
    11.7267  11.7267  11.8678  11.8678  11.8802  11.8802  12.0425  12.0425
    12.2306  12.2306  12.4749  12.4749  12.6872  12.6872  12.7458  12.7458
    12.7828  12.7828  12.8148  12.8148  12.8295  12.8295  12.8773  12.8773
    12.9036  12.9036  12.9917  12.9917  13.0282  13.0282  13.1091  13.1091
    13.1487  13.1487  13.1654  13.1654  13.2091  13.2091  13.2420  13.2420
    13.3017  13.3017  13.3647  13.3647  13.4127  13.4127  13.4649  13.4649
    13.5454  13.5454  13.6133  13.6133  13.6687  13.6687  13.7399  13.7399
    13.8441  13.8441  13.9009  13.9009  14.0199  14.0199  14.1075  14.1075
    14.1514  14.1514  14.2484  14.2484  14.2671  14.2671  14.3031  14.3031
    14.4422  14.4422  14.5908  14.5908  14.7756  14.7756  14.8681  14.8681
    14.9594  14.9595  15.0118  15.0118  15.1308  15.1308  15.1994  15.1994
    15.4305  15.4305  15.6982  15.6982  15.7514  15.7514  15.9057  15.9057
    15.9781  15.9781  16.0061  16.0061  16.3026  16.3026  16.7558  16.7558
    16.8447  16.8447  16.8640  16.8640  17.4299  17.4299  17.6837  17.6837
    17.8435  17.8435  18.0709  18.0709  18.1651  18.1651  18.2146  18.2146
    19.6519  19.6519  19.7404  19.7405  20.0455  20.0455  20.2596  20.2596
    22.9470  22.9470  23.3102  23.3102  23.3742  23.3742  23.7936  23.7936
    23.8474  23.8474  24.3826  24.3826  26.2927  26.2928  26.3625  26.3625
    26.4334

     the Fermi energy is    18.0762 ev

!    total energy              =  -21689.52521309 Ry

     total all-electron energy =  -1064657.215762 Ry
     estimated scf accuracy    <       0.00000086 Ry
     smearing contrib. (-TS)   =      -0.02330663 Ry
     internal energy E=F+TS    =  -21689.50190646 Ry

     The total energy is F=E-TS. E is the sum of the following terms:
     one-electron contribution =      65.07353422 Ry
     hartree contribution      =     389.16517843 Ry
     xc contribution           =    -907.14305230 Ry
     ewald contribution        =   -1842.95029920 Ry
     one-center paw contrib.   =  -19393.64726760 Ry

     convergence has been achieved in  20 iterations

     Forces acting on atoms (cartesian axes, Ry/au):

     atom    1 type  1   force =    -1.04156308   -0.00000126    6.17493835
     atom    2 type  1   force =    -1.04156308    0.00000126    6.17493835
     atom    3 type  1   force =    -1.79038624    0.00000000    6.35282688
     atom    4 type  1   force =    -1.79038961    0.00000000    6.35284623
     atom    5 type  1   force =     0.01289594    0.00000661    0.03343464
     atom    6 type  1   force =     0.01289594   -0.00000661    0.03343464
     atom    7 type  1   force =    -0.00018084    0.00000000    0.00222936
     atom    8 type  1   force =    -0.00018776    0.00000000    0.00221942
     atom    9 type  1   force =    -0.00092440   -0.00000107    0.00095021
     atom   10 type  1   force =    -0.00092440    0.00000107    0.00095021
     atom   11 type  1   force =     0.00061125    0.00000000   -0.00041816
     atom   12 type  1   force =     0.00061420    0.00000000   -0.00041197
     atom   13 type  1   force =    -0.00892936    0.00000108    0.00228192
     atom   14 type  1   force =    -0.00892936   -0.00000108    0.00228192
     atom   15 type  1   force =     0.07537681    0.00000000   -0.04196888
     atom   16 type  1   force =     0.07536911    0.00000000   -0.04196397
     atom   17 type  1   force =    -0.07597213    0.00000576    0.04148357
     atom   18 type  1   force =    -0.07597213   -0.00000576    0.04148357
     atom   19 type  1   force =     0.01037540    0.00000000   -0.00308382
     atom   20 type  1   force =     0.01038089    0.00000000   -0.00308135
     atom   21 type  1   force =    -0.00022474    0.00000676   -0.00172230
     atom   22 type  1   force =    -0.00022474   -0.00000676   -0.00172230
     atom   23 type  1   force =    -0.01291050    0.00000000   -0.03324057
     atom   24 type  1   force =    -0.01291118    0.00000000   -0.03324883
     atom   25 type  1   force =     1.79006800   -0.00000386   -6.35259313
     atom   26 type  1   force =     1.79006800    0.00000386   -6.35259313
     atom   27 type  1   force =     1.04176599    0.00000000   -6.17512674
     atom   28 type  1   force =     1.04177202    0.00000000   -6.17512410

     Total force =    18.197455     Total SCF correction =     0.001850

     Writing all to output data dir ./pwscf.save/

     General routines

     Parallel routines

   This run was terminated on:   8:41: 8   2Mar2024

   JOB DONE.