     Program PWSCF v.7.0 starts on  2Mar2024 at  9:51:48

     R & G space division:  proc/nbgrp/npool/nimage =      10

     Reading input from GSF110_0.4.in
Warning: card &CELL ignored
Warning: card / ignored

     Current dimensions of program PWSCF are:
     Max number of different atomic species (ntypx) = 10
     Max number of k-points (npk) =  40000
     Max angular momentum in pseudopotentials (lmaxx) =  4

     File ./pwscf.bfgs deleted, as requested
     file Au.pbe-n-kjpaw_psl.1.0.0.UPF: wavefunction(s)  6S 5D renormalized
     Found identity + (  0.0000 -0.5000  0.0000) symmetry
     This is a supercell, fractional translations are disabled
     Message from routine setup:
     using ibrav=0 with symmetry is DISCOURAGED, use correct ibrav instead

     Using Slab Decomposition

     bravais-lattice index     =            0
     lattice parameter (alat)  =       7.7101  a.u.
     unit-cell volume          =    2979.1368 (a.u.)^3
     number of atoms/cell      =           28
     number of atomic types    =            1
     number of electrons       =       308.00
     number of Kohn-Sham states=          185
     kinetic-energy cutoff     =      50.0000  Ry
     charge density cutoff     =     200.0000  Ry
     scf convergence threshold =      1.0E-06
     mixing beta               =       0.1000
     number of iterations used =            8  plain     mixing
     Exchange-correlation= SLA  PW   PBX  PBC
                           (   1   4   3   4   0   0   0)

     celldm(1)=   7.710083  celldm(2)=   0.000000  celldm(3)=   0.000000
     celldm(4)=   0.000000  celldm(5)=   0.000000  celldm(6)=   0.000000

     crystal axes: (cart. coord. in units of alat)
               a(1) = (   1.000000   0.000000   0.000000 )
               a(2) = (   0.000000   1.414214   0.000000 )
               a(3) = (   0.000000   0.000000   4.596194 )

     reciprocal axes: (cart. coord. in units 2 pi/alat)
               b(1) = (  1.000000  0.000000  0.000000 )
               b(2) = (  0.000000  0.707107  0.000000 )
               b(3) = (  0.000000  0.000000  0.217571 )

     PseudoPot. # 1 for Au read from file:
     ./Au.pbe-n-kjpaw_psl.1.0.0.UPF
     MD5 check sum: 4db85c736373c707a97ce4c36c2a9d23
     Pseudo is Projector augmented-wave + core cor, Zval = 11.0
     Generated using &quot;atomic&quot; code by A. Dal Corso  v.6.3
     Shape of augmentation charge: PSQ
     Using radial grid of 1279 points,  6 beta functions with:
                l(1) =   0
                l(2) =   0
                l(3) =   1
                l(4) =   1
                l(5) =   2
                l(6) =   2
     Q(r) pseudized with 0 coefficients

     atomic species   valence    mass     pseudopotential
        Au            11.00   196.96657     Au( 1.00)

      2 Sym. Ops. (no inversion) found

   Cartesian axes

     site n.     atom                  positions (alat units)
         1           Au  tau(   1) = (   0.5000000   0.3535534   0.0000000  )
         2           Au  tau(   2) = (   0.5000000   1.0606602   0.0000000  )
         3           Au  tau(   3) = (   0.0000000   0.0000000   0.3535534  )
         4           Au  tau(   4) = (   0.0000000   0.7071068   0.3535534  )
         5           Au  tau(   5) = (   0.5000000   0.3535534   0.7071068  )
         6           Au  tau(   6) = (   0.5000000   1.0606602   0.7071068  )
         7           Au  tau(   7) = (   0.0000000   0.0000000   1.0606602  )
         8           Au  tau(   8) = (   0.0000000   0.7071068   1.0606602  )
         9           Au  tau(   9) = (   0.5000000   0.3535534   1.4142136  )
        10           Au  tau(  10) = (   0.5000000   1.0606602   1.4142136  )
        11           Au  tau(  11) = (   0.0000000   0.0000000   1.7677670  )
        12           Au  tau(  12) = (   0.0000000   0.7071068   1.7677670  )
        13           Au  tau(  13) = (   0.5000000   0.3535534   2.1213203  )
        14           Au  tau(  14) = (   0.5000000   1.0606602   2.1213203  )
        15           Au  tau(  15) = (   0.0000000   0.0000000   2.4748737  )
        16           Au  tau(  16) = (   0.0000000   0.7071068   2.4748737  )
        17           Au  tau(  17) = (   0.9000000   0.3535534   2.8284271  )
        18           Au  tau(  18) = (   0.9000000   1.0606602   2.8284271  )
        19           Au  tau(  19) = (   0.4000000   0.0000000   3.1819805  )
        20           Au  tau(  20) = (   0.4000000   0.7071068   3.1819805  )
        21           Au  tau(  21) = (   0.9000000   0.3535534   3.5355339  )
        22           Au  tau(  22) = (   0.9000000   1.0606602   3.5355339  )
        23           Au  tau(  23) = (   0.4000000   0.0000000   3.8890873  )
        24           Au  tau(  24) = (   0.4000000   0.7071068   3.8890873  )
        25           Au  tau(  25) = (   0.9000000   0.3535534   4.2426407  )
        26           Au  tau(  26) = (   0.9000000   1.0606602   4.2426407  )
        27           Au  tau(  27) = (   0.4000000   0.0000000   4.5961941  )
        28           Au  tau(  28) = (   0.4000000   0.7071068   4.5961941  )

     number of k points=    35  Gaussian smearing, width (Ry)=  0.0200
                       cart. coord. in units 2pi/alat
        k(    1) = (   0.0000000   0.0000000   0.0000000), wk =   0.0208333
        k(    2) = (   0.0000000   0.0589256   0.0000000), wk =   0.0416667
        k(    3) = (   0.0000000   0.1178511   0.0000000), wk =   0.0416667
        k(    4) = (   0.0000000   0.1767767   0.0000000), wk =   0.0416667
        k(    5) = (   0.0000000   0.2357023   0.0000000), wk =   0.0416667
        k(    6) = (   0.0000000   0.2946278   0.0000000), wk =   0.0416667
        k(    7) = (   0.0000000  -0.3535534   0.0000000), wk =   0.0208333
        k(    8) = (   0.1250000   0.0000000   0.0000000), wk =   0.0416667
        k(    9) = (   0.1250000   0.0589256   0.0000000), wk =   0.0833333
        k(   10) = (   0.1250000   0.1178511   0.0000000), wk =   0.0833333
        k(   11) = (   0.1250000   0.1767767   0.0000000), wk =   0.0833333
        k(   12) = (   0.1250000   0.2357023   0.0000000), wk =   0.0833333
        k(   13) = (   0.1250000   0.2946278   0.0000000), wk =   0.0833333
        k(   14) = (   0.1250000  -0.3535534   0.0000000), wk =   0.0416667
        k(   15) = (   0.2500000   0.0000000   0.0000000), wk =   0.0416667
        k(   16) = (   0.2500000   0.0589256   0.0000000), wk =   0.0833333
        k(   17) = (   0.2500000   0.1178511   0.0000000), wk =   0.0833333
        k(   18) = (   0.2500000   0.1767767   0.0000000), wk =   0.0833333
        k(   19) = (   0.2500000   0.2357023   0.0000000), wk =   0.0833333
        k(   20) = (   0.2500000   0.2946278   0.0000000), wk =   0.0833333
        k(   21) = (   0.2500000  -0.3535534   0.0000000), wk =   0.0416667
        k(   22) = (   0.3750000   0.0000000   0.0000000), wk =   0.0416667
        k(   23) = (   0.3750000   0.0589256   0.0000000), wk =   0.0833333
        k(   24) = (   0.3750000   0.1178511   0.0000000), wk =   0.0833333
        k(   25) = (   0.3750000   0.1767767   0.0000000), wk =   0.0833333
        k(   26) = (   0.3750000   0.2357023   0.0000000), wk =   0.0833333
        k(   27) = (   0.3750000   0.2946278   0.0000000), wk =   0.0833333
        k(   28) = (   0.3750000  -0.3535534   0.0000000), wk =   0.0416667
        k(   29) = (  -0.5000000   0.0000000   0.0000000), wk =   0.0208333
        k(   30) = (  -0.5000000   0.0589256   0.0000000), wk =   0.0416667
        k(   31) = (  -0.5000000   0.1178511   0.0000000), wk =   0.0416667
        k(   32) = (  -0.5000000   0.1767767   0.0000000), wk =   0.0416667
        k(   33) = (  -0.5000000   0.2357023   0.0000000), wk =   0.0416667
        k(   34) = (  -0.5000000   0.2946278   0.0000000), wk =   0.0416667
        k(   35) = (  -0.5000000  -0.3535534   0.0000000), wk =   0.0208333

     Initial potential from superposition of free atoms

     starting charge     307.9969, renormalised to     308.0000
     Starting wfcs are  252 randomized atomic wfcs
     Checking if some PAW data can be deallocated...

     Self-consistent Calculation

     iteration #  1     ecut=    50.00 Ry     beta= 0.10
     Davidson diagonalization with overlap
     ethr =  1.00E-02,  avg # of iterations =  4.2

     total energy              =  -21685.94091167 Ry
     estimated scf accuracy    <      19.95259062 Ry

[...]

     iteration #  7     ecut=    50.00 Ry     beta= 0.10
     Davidson diagonalization with overlap
     c_bands:  1 eigenvalues not converged
     c_bands:  1 eigenvalues not converged
     c_bands:  1 eigenvalues not converged
     ethr =  1.01E-04,  avg # of iterations = 11.8

[...]

     negative rho (up, down):  8.343E-04 0.000E+00

[...]

     iteration # 10     ecut=    50.00 Ry     beta= 0.10
     Davidson diagonalization with overlap
     c_bands:  4 eigenvalues not converged
     c_bands:  2 eigenvalues not converged
     c_bands:  3 eigenvalues not converged
     ethr =  8.38E-06,  avg # of iterations = 10.6

[...]

     total energy              =  -21688.83268455 Ry
     estimated scf accuracy    <       0.00000164 Ry

     iteration # 21     ecut=    50.00 Ry     beta= 0.10
     Davidson diagonalization with overlap
     ethr =  5.34E-10,  avg # of iterations =  3.5

[...]

     End of self-consistent calculation

          k = 0.0000 0.0000 0.0000 ( 17807 PWs)   bands (ev):

    -7.1788  -5.8510  -5.8508  -4.5496  -3.4024  -0.3309  -0.3306   2.2255
     2.6949   4.3738   5.0800   5.0807   5.5981   7.4925   7.4943   7.6232
     8.0048   8.1055   8.1397   9.1509   9.1516   9.2272   9.3206   9.5822
    10.0087  10.0163  10.1437  10.3259  10.3267  10.4589  10.5375  10.5401
    10.6553  10.9855  11.0491  11.1260  11.1473  11.1916  11.2926  11.2945
    11.3314  11.3632  11.4606  11.5267  11.5338  11.6812  11.6980  11.7096
    11.7944  11.8584  11.8688  11.8741  11.9795  12.0144  12.0621  12.1275
    12.1281  12.2365  12.3164  12.3368  12.3561  12.4285  12.4648  12.5952
    12.6421  12.6449  12.7183  12.7841  12.8034  12.8269  12.8819  13.0163
    13.0643  13.1100  13.1295  13.1863  13.2104  13.2731  13.3428  13.4166
    13.4404  13.4920  13.5602  13.5631  13.6286  13.6619  13.6729  13.7822
    13.8108  13.8521  13.8744  13.9429  14.0192  14.0516  14.0927  14.2666
    14.3002  14.3586  14.3964  14.4121  14.5421  14.6777  14.7198  14.7416
    14.7707  14.7923  14.8014  14.8387  14.8687  14.8937  14.9528  14.9723
    15.0280  15.0916  15.0934  15.1593  15.1718  15.2449  15.3015  15.4167
    15.4619  15.4780  15.5874  15.5882  15.6143  15.7292  15.7626  15.7868
    15.8178  15.8386  15.8796  15.9702  16.0024  16.0578  16.0974  16.1390
    16.1810  16.2459  16.2989  16.3003  16.3876  16.5096  16.6369  16.6511
    16.9885  17.4975  17.5175  17.8737  17.8980  17.9235  18.1076  18.1669
    18.2172  18.3435  18.4187  18.6428  18.8501  18.9424  18.9678  19.2870
    19.2921  19.6580  20.0937  20.3733  21.0640  21.1525  21.1532  21.6695
    22.7030  23.1094  23.5110  24.1123  24.2622  24.3489  24.3926  24.4615
    24.4879  24.6704  25.0220  25.0768  25.5431  25.7672  26.0223  26.0935
    26.1591

[...]

          k = 0.3750-0.3536 0.0000 ( 17776 PWs)   bands (ev):

[...]

          k =-0.5000 0.0000 0.0000 ( 17814 PWs)   bands (ev):

[...]

          k =-0.5000-0.3536 0.0000 ( 17712 PWs)   bands (ev):

    -7.8114  -7.8114  -5.2401  -5.2401   0.1613   0.1613   1.9686   1.9686
     3.5484   3.5484   5.0473   5.0473   6.3090   6.3090   8.3937   8.3937
     9.0475   9.0475   9.2830   9.2830   9.3170   9.3170   9.6060   9.6060
     9.9736   9.9736  10.2313  10.2313  10.7597  10.7597  10.7803  10.7803
    11.2656  11.2656  11.3311  11.3311  11.5061  11.5061  11.6607  11.6607
    11.7424  11.7424  11.8513  11.8513  11.9971  11.9971  12.1511  12.1511
    12.1754  12.1754  12.3191  12.3191  12.3809  12.3809  12.4554  12.4554
    12.5464  12.5464  12.5542  12.5542  12.6785  12.6785  12.6993  12.6993
    12.7951  12.7951  12.9661  12.9661  12.9839  12.9839  13.0139  13.0139
    13.0468  13.0468  13.0871  13.0871  13.1797  13.1797  13.1862  13.1862
    13.3242  13.3242  13.3547  13.3547  13.4257  13.4257  13.4835  13.4835
    13.6415  13.6415  13.6519  13.6519  13.7231  13.7231  13.7661  13.7661
    13.8432  13.8432  13.9815  13.9815  14.0048  14.0048  14.0387  14.0387
    14.2506  14.2506  14.3039  14.3039  14.3321  14.3321  14.3540  14.3540
    14.4650  14.4650  14.5563  14.5563  14.7749  14.7749  14.8268  14.8268
    14.9434  14.9434  15.0448  15.0448  15.1213  15.1213  15.3446  15.3446
    15.3877  15.3877  15.6106  15.6106  15.7132  15.7132  15.7624  15.7624
    15.8271  15.8271  16.1951  16.1951  16.2757  16.2757  16.3471  16.3471
    16.4513  16.4513  16.9122  16.9122  17.0887  17.0887  17.6093  17.6093
    17.7746  17.7746  17.9562  17.9562  18.1887  18.1887  19.1308  19.1308
    19.6199  19.6199  19.7540  19.7540  19.9981  19.9981  20.0857  20.0857
    22.6599  22.6599  22.8181  22.8181  23.3047  23.3047  23.4510  23.4510
    24.4884  24.4884  25.6359  25.6360  26.1001  26.1001  26.1215  26.1215
    26.3392

     the Fermi energy is    18.3282 ev

!    total energy              =  -21688.83268424 Ry

     total all-electron energy =  -1064656.523234 Ry
     estimated scf accuracy    <       0.00000042 Ry
     smearing contrib. (-TS)   =      -0.02252092 Ry
     internal energy E=F+TS    =  -21688.81016332 Ry

     The total energy is F=E-TS. E is the sum of the following terms:
     one-electron contribution =      30.02432168 Ry
     hartree contribution      =     405.24921305 Ry
     xc contribution           =    -908.01286279 Ry
     ewald contribution        =   -1822.16105053 Ry
     one-center paw contrib.   =  -19393.90978472 Ry

     convergence has been achieved in  21 iterations

     negative rho (up, down):  4.953E-03 0.000E+00

     Forces acting on atoms (cartesian axes, Ry/au):

     atom    1 type  1   force =     3.01188298   -0.00000326    0.23885540
     atom    2 type  1   force =     3.01188298    0.00000326    0.23885540
     atom    3 type  1   force =    -0.34972541    0.00000000    0.42705207
     atom    4 type  1   force =    -0.34972808    0.00000000    0.42705414
     atom    5 type  1   force =     0.01648838   -0.00000104    0.05135113
     atom    6 type  1   force =     0.01648838    0.00000104    0.05135113
     atom    7 type  1   force =     0.00011639    0.00000000    0.00921292
     atom    8 type  1   force =     0.00011246    0.00000000    0.00921443
     atom    9 type  1   force =    -0.00066164    0.00000022    0.00242355
     atom   10 type  1   force =    -0.00066164   -0.00000022    0.00242355
     atom   11 type  1   force =    -0.00027434    0.00000000   -0.00331762
     atom   12 type  1   force =    -0.00027430    0.00000000   -0.00331837
     atom   13 type  1   force =    -0.00883707   -0.00000065   -0.00295766
     atom   14 type  1   force =    -0.00883707    0.00000065   -0.00295766
     atom   15 type  1   force =     0.28896598    0.00000000   -0.96777675
     atom   16 type  1   force =     0.28896591    0.00000000   -0.96777824
     atom   17 type  1   force =    -0.28831182    0.00000340    0.96800133
     atom   18 type  1   force =    -0.28831182   -0.00000340    0.96800133
     atom   19 type  1   force =     0.01032224    0.00000000   -0.00077665
     atom   20 type  1   force =     0.01032095    0.00000000   -0.00077517
     atom   21 type  1   force =     0.00002700   -0.00000217   -0.00498483
     atom   22 type  1   force =     0.00002700    0.00000217   -0.00498483
     atom   23 type  1   force =    -0.01658592    0.00000000   -0.05039148
     atom   24 type  1   force =    -0.01658688    0.00000000   -0.05039533
     atom   25 type  1   force =     0.34889339    0.00000136   -0.42805013
     atom   26 type  1   force =     0.34889339   -0.00000136   -0.42805013
     atom   27 type  1   force =    -3.01229210    0.00000000   -0.23863937
     atom   28 type  1   force =    -3.01229933    0.00000000   -0.23864217

     Total force =     6.467657     Total SCF correction =     0.001502

     Writing all to output data dir ./pwscf.save/

     General routines

     Parallel routines

   This run was terminated on:  10: 6:29   2Mar2024

   JOB DONE.