     Program PWSCF v.7.0 starts on  1Feb2024 at  9:37:30

     R & G space division:  proc/nbgrp/npool/nimage =      36

     Waiting for input...
     Reading input from standard input

     Current dimensions of program PWSCF are:
     Max number of different atomic species (ntypx) = 10
     Max number of k-points (npk) =  40000
     Max angular momentum in pseudopotentials (lmaxx) =  4
     file Au.UPF: wavefunction(s)  6S 5D renormalized
     Found identity + (  0.0000  0.5000  0.0000) symmetry
     This is a supercell, fractional translations are disabled

     Using Slab Decomposition

     bravais-lattice index     =            0
     lattice parameter (alat)  =      44.5067  a.u.
     unit-cell volume          =    7792.4247 (a.u.)^3
     number of atoms/cell      =           40
     number of atomic types    =            1
     number of electrons       =       440.00
     number of Kohn-Sham states=          264
     kinetic-energy cutoff     =      80.0000  Ry
     charge density cutoff     =     320.0000  Ry
     scf convergence threshold =      1.0E-08
     mixing beta               =       0.7000
     number of iterations used =            8  plain     mixing
     energy convergence thresh.=      1.0E-04
     force convergence thresh. =      1.0E-04
     Exchange-correlation= SLA  PW   PBX  PBC
                           (   1   4   3   4   0   0   0)
     nstep                     =           50

     celldm(1)=  44.506748  celldm(2)=   0.000000  celldm(3)=   0.000000
     celldm(4)=   0.000000  celldm(5)=   0.000000  celldm(6)=   0.000000

     crystal axes: (cart. coord. in units of alat)
               a(1) = (   1.000000   0.000000   0.000000 )
               a(2) = (   0.000000   0.250000   0.000000 )
               a(3) = (   0.000000   0.000000   0.353553 )

     reciprocal axes: (cart. coord. in units 2 pi/alat)
               b(1) = (  1.000000  0.000000  0.000000 )
               b(2) = (  0.000000  4.000000  0.000000 )
               b(3) = (  0.000000  0.000000  2.828427 )

     PseudoPot. # 1 for Au read from file:
     ./Au.UPF
     MD5 check sum: 4db85c736373c707a97ce4c36c2a9d23
     Pseudo is Projector augmented-wave + core cor, Zval = 11.0
     Generated using &quot;atomic&quot; code by A. Dal Corso  v.6.3
     Shape of augmentation charge: PSQ
     Using radial grid of 1279 points,  6 beta functions with:
                l(1) =   0
                l(2) =   0
                l(3) =   1
                l(4) =   1
                l(5) =   2
                l(6) =   2
     Q(r) pseudized with 0 coefficients

     atomic species   valence    mass     pseudopotential
        Au            11.00   196.96657     Au( 1.00)

     No symmetry found

   Cartesian axes

     site n.     atom                  positions (alat units)
         1           Au  tau(   1) = (   0.0000000   0.0000000   0.0000000  )
         2           Au  tau(   2) = (   0.0625000   0.0625000   0.0883883  )
         3           Au  tau(   3) = (   0.1250000   0.0000000   0.0000000  )
         4           Au  tau(   4) = (   0.1875000   0.0625000   0.0883883  )
         5           Au  tau(   5) = (   0.2500000   0.0000000   0.0000000  )
         6           Au  tau(   6) = (   0.3125000   0.0625000   0.0883883  )
         7           Au  tau(   7) = (   0.3750000   0.0000000   0.0000000  )
         8           Au  tau(   8) = (   0.4375000   0.0625000   0.0883883  )
         9           Au  tau(   9) = (   0.5000000   0.0000000   0.0000000  )
        10           Au  tau(  10) = (   0.5625000   0.0625000   0.0883883  )
        11           Au  tau(  11) = (   0.0000000   0.1250000   0.0000000  )
        12           Au  tau(  12) = (   0.0625000   0.1875000   0.0883883  )
        13           Au  tau(  13) = (   0.1250000   0.1250000   0.0000000  )
        14           Au  tau(  14) = (   0.1875000   0.1875000   0.0883883  )
        15           Au  tau(  15) = (   0.2500000   0.1250000   0.0000000  )
        16           Au  tau(  16) = (   0.3125000   0.1875000   0.0883883  )
        17           Au  tau(  17) = (   0.3750000   0.1250000   0.0000000  )
        18           Au  tau(  18) = (   0.4375000   0.1875000   0.0883883  )
        19           Au  tau(  19) = (   0.5000000   0.1250000   0.0000000  )
        20           Au  tau(  20) = (   0.5625000   0.1875000   0.0883883  )
        21           Au  tau(  21) = (   0.0000000   0.0000000   0.1767767  )
        22           Au  tau(  22) = (   0.0625000   0.0625000   0.2651650  )
        23           Au  tau(  23) = (   0.1250000   0.0000000   0.1767767  )
        24           Au  tau(  24) = (   0.1875000   0.0625000   0.2651650  )
        25           Au  tau(  25) = (   0.2500000   0.0000000   0.1767767  )
        26           Au  tau(  26) = (   0.3125000   0.0625000   0.2651650  )
        27           Au  tau(  27) = (   0.3750000   0.0000000   0.1767767  )
        28           Au  tau(  28) = (   0.4375000   0.0625000   0.2651650  )
        29           Au  tau(  29) = (   0.5000000   0.0000000   0.1767767  )
        30           Au  tau(  30) = (   0.5625000   0.0625000   0.2651650  )
        31           Au  tau(  31) = (   0.0000000   0.1250000   0.1767767  )
        32           Au  tau(  32) = (   0.0625000   0.1875000   0.2651650  )
        33           Au  tau(  33) = (   0.1250000   0.1250000   0.1767767  )
        34           Au  tau(  34) = (   0.1875000   0.1875000   0.2651650  )
        35           Au  tau(  35) = (   0.2500000   0.1250000   0.1767767  )
        36           Au  tau(  36) = (   0.3125000   0.1875000   0.2651650  )
        37           Au  tau(  37) = (   0.3750000   0.1250000   0.1767767  )
        38           Au  tau(  38) = (   0.4375000   0.1875000   0.2651650  )
        39           Au  tau(  39) = (   0.5000000   0.1250000   0.1767767  )
        40           Au  tau(  40) = (   0.5625000   0.1875000   0.2651650  )

     number of k points=    52  Gaussian smearing, width (Ry)=  0.0200
                       cart. coord. in units 2pi/alat
        k(    1) = (   0.0000000   0.0000000   0.0000000), wk =   0.0208333
        k(    2) = (   0.0000000   0.0000000   0.4714045), wk =   0.0416667
        k(    3) = (   0.0000000   0.0000000   0.9428090), wk =   0.0416667
        k(    4) = (   0.0000000   0.0000000  -1.4142136), wk =   0.0208333
        k(    5) = (   0.0000000   0.5000000   0.0000000), wk =   0.0416667
        k(    6) = (   0.0000000   0.5000000   0.4714045), wk =   0.0416667
        k(    7) = (   0.0000000   0.5000000   0.9428090), wk =   0.0416667
        k(    8) = (   0.0000000   0.5000000  -1.4142136), wk =   0.0416667
        k(    9) = (   0.0000000   0.5000000  -0.9428090), wk =   0.0416667
        k(   10) = (   0.0000000   0.5000000  -0.4714045), wk =   0.0416667
        k(   11) = (   0.0000000   1.0000000   0.0000000), wk =   0.0416667
        k(   12) = (   0.0000000   1.0000000   0.4714045), wk =   0.0416667
        k(   13) = (   0.0000000   1.0000000   0.9428090), wk =   0.0416667
        k(   14) = (   0.0000000   1.0000000  -1.4142136), wk =   0.0416667
        k(   15) = (   0.0000000   1.0000000  -0.9428090), wk =   0.0416667
        k(   16) = (   0.0000000   1.0000000  -0.4714045), wk =   0.0416667
        k(   17) = (   0.0000000   1.5000000   0.0000000), wk =   0.0416667
        k(   18) = (   0.0000000   1.5000000   0.4714045), wk =   0.0416667
        k(   19) = (   0.0000000   1.5000000   0.9428090), wk =   0.0416667
        k(   20) = (   0.0000000   1.5000000  -1.4142136), wk =   0.0416667
        k(   21) = (   0.0000000   1.5000000  -0.9428090), wk =   0.0416667
        k(   22) = (   0.0000000   1.5000000  -0.4714045), wk =   0.0416667
        k(   23) = (   0.0000000  -2.0000000   0.0000000), wk =   0.0208333
        k(   24) = (   0.0000000  -2.0000000   0.4714045), wk =   0.0416667
        k(   25) = (   0.0000000  -2.0000000   0.9428090), wk =   0.0416667
        k(   26) = (   0.0000000  -2.0000000  -1.4142136), wk =   0.0208333
        k(   27) = (  -0.5000000   0.0000000   0.0000000), wk =   0.0208333
        k(   28) = (  -0.5000000   0.0000000   0.4714045), wk =   0.0416667
        k(   29) = (  -0.5000000   0.0000000   0.9428090), wk =   0.0416667
        k(   30) = (  -0.5000000   0.0000000  -1.4142136), wk =   0.0208333
        k(   31) = (  -0.5000000   0.5000000   0.0000000), wk =   0.0416667
        k(   32) = (  -0.5000000   0.5000000   0.4714045), wk =   0.0416667
        k(   33) = (  -0.5000000   0.5000000   0.9428090), wk =   0.0416667
        k(   34) = (  -0.5000000   0.5000000  -1.4142136), wk =   0.0416667
        k(   35) = (  -0.5000000   0.5000000  -0.9428090), wk =   0.0416667
        k(   36) = (  -0.5000000   0.5000000  -0.4714045), wk =   0.0416667
        k(   37) = (  -0.5000000   1.0000000   0.0000000), wk =   0.0416667
        k(   38) = (  -0.5000000   1.0000000   0.4714045), wk =   0.0416667
        k(   39) = (  -0.5000000   1.0000000   0.9428090), wk =   0.0416667
        k(   40) = (  -0.5000000   1.0000000  -1.4142136), wk =   0.0416667
        k(   41) = (  -0.5000000   1.0000000  -0.9428090), wk =   0.0416667
        k(   42) = (  -0.5000000   1.0000000  -0.4714045), wk =   0.0416667
        k(   43) = (  -0.5000000   1.5000000   0.0000000), wk =   0.0416667
        k(   44) = (  -0.5000000   1.5000000   0.4714045), wk =   0.0416667
        k(   45) = (  -0.5000000   1.5000000   0.9428090), wk =   0.0416667
        k(   46) = (  -0.5000000   1.5000000  -1.4142136), wk =   0.0416667
        k(   47) = (  -0.5000000   1.5000000  -0.9428090), wk =   0.0416667
        k(   48) = (  -0.5000000   1.5000000  -0.4714045), wk =   0.0416667
        k(   49) = (  -0.5000000  -2.0000000   0.0000000), wk =   0.0208333
        k(   50) = (  -0.5000000  -2.0000000   0.4714045), wk =   0.0416667
        k(   51) = (  -0.5000000  -2.0000000   0.9428090), wk =   0.0416667
        k(   52) = (  -0.5000000  -2.0000000  -1.4142136), wk =   0.0208333

     Initial potential from superposition of free atoms

     starting charge     439.9956, renormalised to     440.0000

     negative rho (up, down):  2.602E-03 0.000E+00
     Starting wfcs are  360 randomized atomic wfcs
     Checking if some PAW data can be deallocated...

     Self-consistent Calculation

     iteration #  1     ecut=    80.00 Ry     beta= 0.70
     Davidson diagonalization with overlap
     ethr =  1.00E-02,  avg # of iterations =  4.7

     Threshold (ethr) on eigenvalues was too large:
     Diagonalizing with lowered threshold

     Davidson diagonalization with overlap
     ethr =  3.92E-04,  avg # of iterations =  6.4

     negative rho (up, down):  1.849E-03 0.000E+00

     total energy              =  -31004.08773435 Ry
     estimated scf accuracy    <       2.20410475 Ry

[...]

     iteration #  4     ecut=    80.00 Ry     beta= 0.70
     Davidson diagonalization with overlap
     c_bands:  1 eigenvalues not converged
     ethr =  5.01E-04,  avg # of iterations = 12.3

[...]

     End of self-consistent calculation

          k = 0.0000 0.0000 0.0000 ( 94233 PWs)   bands (ev):

[...]
Au            0.1260411849        0.5000000000        0.5000000000    1   0   0
Au            0.1869136756        0.7500000000        0.7500000000    1   0   0
Au            0.2503224705        0.5000000000        0.5000000000    1   0   0
Au            0.3121758134        0.7500000000        0.7500000000    1   0   0
Au            0.3755851529        0.5000000000        0.5000000000    1   0   0
Au            0.4364592680        0.7500000000        0.7500000000    1   0   0
Au            0.5041632635        0.5000000000        0.5000000000    1   0   0
Au            0.5586736588        0.7500000000        0.7500000000    1   0   0

     Writing config-only to output data dir ./gold.save/
     NEW-OLD atomic charge density approx. for the potential

[...]

     CASE: energy            _new < energy            _old

[...]

     BFGS Geometry Optimization
     Energy error            =      0.0E+00 Ry
     Gradient error          =      5.7E-04 Ry/Bohr

[...]

     energy             new  =  -31005.1793904490 Ry

[...]

     WARNING: bfgs curvature condition failed, Theta= 0.889
     new trust radius        =       0.0006289508 bohr
     new conv_thr            =            1.0E-10 Ry

[...]

     Davidson diagonalization with overlap
     c_bands:  1 eigenvalues not converged
     ethr =  1.12E-09,  avg # of iterations =  4.5

[...]

     iteration #  3     ecut=    80.00 Ry     beta= 0.70
     Davidson diagonalization with overlap
     c_bands:  1 eigenvalues not converged
     ethr =  2.29E-09,  avg # of iterations =  3.3

[...]

     Total force =     0.000612     Total SCF correction =     0.000027

[...]

     number of scf cycles    =  12
     number of bfgs steps    =  11

     energy             old  =  -31005.1794452865 Ry
     energy             new  =  -31005.1794513275 Ry

     CASE: energy            _new < energy            _old

     new trust radius        =       0.0017355114 bohr
     new conv_thr            =            1.0E-10 Ry

ATOMIC_POSITIONS (crystal)
Au            0.0042484351        0.0000000000        0.0000000000    1   0   0
Au            0.0585282035        0.2500000000        0.2500000000    1   0   0
Au            0.1263300110        0.0000000000        0.0000000000    1   0   0
Au            0.1867311954        0.2500000000        0.2500000000    1   0   0
Au            0.2504036180        0.0000000000        0.0000000000    1   0   0
Au            0.3120941733        0.2500000000        0.2500000000    1   0   0
Au            0.3757645819        0.0000000000        0.0000000000    1   0   0
Au            0.4361721857        0.2500000000        0.2500000000    1   0   0
Au            0.5039722783        0.0000000000        0.0000000000    1   0   0
Au            0.5582549692        0.2500000000        0.2500000000    1   0   0
Au            0.0042484758        0.5000000000        0.0000000000    1   0   0
Au            0.0585281599        0.7500000000        0.2500000000    1   0   0
Au            0.1263300350        0.5000000000        0.0000000000    1   0   0
Au            0.1867311893        0.7500000000        0.2500000000    1   0   0
Au            0.2504036236        0.5000000000        0.0000000000    1   0   0
Au            0.3120941893        0.7500000000        0.2500000000    1   0   0
Au            0.3757645724        0.5000000000        0.0000000000    1   0   0
Au            0.4361722221        0.7500000000        0.2500000000    1   0   0
Au            0.5039723147        0.5000000000        0.0000000000    1   0   0
Au            0.5582550179        0.7500000000        0.2500000000    1   0   0
Au            0.0042483920        0.0000000000        0.5000000000    1   0   0
Au            0.0585282950        0.2500000000        0.7500000000    1   0   0
Au            0.1263293850        0.0000000000        0.5000000000    1   0   0
Au            0.1867314422        0.2500000000        0.7500000000    1   0   0
Au            0.2504032663        0.0000000000        0.5000000000    1   0   0
Au            0.3120943869        0.2500000000        0.7500000000    1   0   0
Au            0.3757650884        0.0000000000        0.5000000000    1   0   0
Au            0.4361721220        0.2500000000        0.7500000000    1   0   0
Au            0.5039731717        0.0000000000        0.5000000000    1   0   0
Au            0.5582547117        0.2500000000        0.7500000000    1   0   0
Au            0.0042484052        0.5000000000        0.5000000000    1   0   0
Au            0.0585283570        0.7500000000        0.7500000000    1   0   0
Au            0.1263293796        0.5000000000        0.5000000000    1   0   0
Au            0.1867314315        0.7500000000        0.7500000000    1   0   0
Au            0.2504032357        0.5000000000        0.5000000000    1   0   0
Au            0.3120943689        0.7500000000        0.7500000000    1   0   0
Au            0.3757650597        0.5000000000        0.5000000000    1   0   0
Au            0.4361721325        0.7500000000        0.7500000000    1   0   0
Au            0.5039731936        0.5000000000        0.5000000000    1   0   0
Au            0.5582547237        0.7500000000        0.7500000000    1   0   0

     Writing config-only to output data dir ./gold.save/
     NEW-OLD atomic charge density approx. for the potential

[...]

     Self-consistent Calculation

[...]

     Threshold (ethr) on eigenvalues was too large:
     Diagonalizing with lowered threshold

     Davidson diagonalization with overlap
     ethr =  1.43E-09,  avg # of iterations =  4.5

[...]

     total energy              =  -31005.17945264 Ry
     estimated scf accuracy    <          1.3E-10 Ry

     iteration # 12     ecut=    80.00 Ry     beta= 0.70
     Davidson diagonalization with overlap
     ethr =  1.00E-13,  avg # of iterations =  2.0

[...]

     End of self-consistent calculation

[...]

          k = 0.0000-2.0000-1.4142 ( 94140 PWs)   bands (ev):

[...]

          k =-0.5000-2.0000-1.4142 ( 94160 PWs)   bands (ev):

    -0.1085  -0.1085  -0.1085  -0.1085   0.4228   0.4228   0.4228   0.4228
     0.9947   0.9947   0.9947   0.9947   1.2239   1.2239   1.2239   1.2239
     1.3676   1.3676   1.3676   1.3676   1.4620   1.4620   1.4620   1.4620
     1.6755   1.6755   1.6755   1.6755   1.8628   1.8628   1.8628   1.8628
     2.0193   2.0193   2.0193   2.0193   2.0224   2.0224   2.0224   2.0224
     2.0888   2.0888   2.0888   2.0888   2.1071   2.1071   2.1071   2.1071
     2.1210   2.1210   2.1210   2.1210   2.1748   2.1748   2.1748   2.1748
     2.2318   2.2318   2.2318   2.2318   2.3247   2.3247   2.3247   2.3247
     2.5094   2.5094   2.5094   2.5094   2.5491   2.5491   2.5491   2.5491
     2.6131   2.6131   2.6131   2.6131   2.6741   2.6741   2.6741   2.6741
     2.8064   2.8064   2.8064   2.8064   2.9483   2.9483   2.9483   2.9483
     2.9775   2.9775   2.9775   2.9775   3.0104   3.0104   3.0104   3.0104
     3.0422   3.0422   3.0422   3.0422   3.1194   3.1194   3.1194   3.1194
     3.2372   3.2372   3.2372   3.2372   3.2461   3.2461   3.2461   3.2461
     3.4425   3.4425   3.4425   3.4425   3.4494   3.4494   3.4494   3.4494
     3.6641   3.6641   3.6641   3.6641   3.9407   3.9407   3.9407   3.9407
     3.9576   3.9576   3.9576   3.9576   3.9614   3.9614   3.9615   3.9615
     4.0099   4.0099   4.0099   4.0099   4.0490   4.0490   4.0490   4.0490
     4.1037   4.1037   4.1037   4.1037   4.1212   4.1212   4.1212   4.1212
     4.1646   4.1646   4.1646   4.1646   4.2042   4.2042   4.2042   4.2042
     4.2716   4.2716   4.2716   4.2716   4.4215   4.4215   4.4215   4.4215
     4.6313   4.6313   4.6313   4.6313   4.7875   4.7875   4.7875   4.7875
     4.8985   4.8985   4.8985   4.8985   4.9342   4.9342   4.9342   4.9342
     5.1068   5.1068   5.1068   5.1068   5.1333   5.1333   5.1333   5.1333
     5.2240   5.2240   5.2240   5.2240   5.3029   5.3029   5.3029   5.3029
     5.3435   5.3435   5.3435   5.3435   5.3736   5.3736   5.3736   5.3736
     5.4422   5.4422   5.4422   5.4422   5.9068   5.9068   5.9068   5.9068
     7.0182   7.0182   7.0182   7.0182   8.3118   8.3118   8.3118   8.3118
     8.4765   8.4765   8.4765   8.4765   8.7799   8.7799   8.7799   8.7799
     9.4284   9.4284   9.4284   9.4284   9.6562   9.6562   9.6562   9.6562
    10.9332  10.9332  10.9332  10.9332  11.6113  11.6113  11.6113  11.6113
    12.1150  12.1150  12.1150  12.1151  12.7592  12.7592  12.7592  12.7592
    13.1850  13.1850  13.1850  13.1850  13.3952  13.3952  13.3952  13.3952

     the Fermi energy is     7.2080 ev

!    total energy              =  -31005.17945264 Ry

     total all-electron energy =  -1520959.023095 Ry
     estimated scf accuracy    <          8.5E-11 Ry
     smearing contrib. (-TS)   =      -0.03630053 Ry
     internal energy E=F+TS    =  -31005.14315211 Ry

     The total energy is F=E-TS. E is the sum of the following terms:
     one-electron contribution =  -14211.34609512 Ry
     hartree contribution      =    7550.89012869 Ry
     xc contribution           =   -1282.05763496 Ry
     ewald contribution        =    4637.82443243 Ry
     one-center paw contrib.   =  -27700.45398315 Ry

     convergence has been achieved in  12 iterations

     negative rho (up, down):  2.705E-03 0.000E+00

     Forces acting on atoms (cartesian axes, Ry/au):

     atom    1 type  1   force =    -0.00002540   -0.00000001    0.00000030
     atom    2 type  1   force =     0.00002610   -0.00000003   -0.00000183
     atom    3 type  1   force =     0.00000979    0.00000002    0.00000093
     atom    4 type  1   force =    -0.00003119   -0.00000003   -0.00000097
     atom    5 type  1   force =     0.00008731   -0.00000001    0.00000168
     atom    6 type  1   force =    -0.00007994   -0.00000001   -0.00000248
     atom    7 type  1   force =     0.00003890   -0.00000003    0.00000187
     atom    8 type  1   force =    -0.00001316    0.00000005   -0.00000619
     atom    9 type  1   force =    -0.00003024   -0.00000003    0.00000144
     atom   10 type  1   force =     0.00002025   -0.00000002   -0.00000595
     atom   11 type  1   force =    -0.00002553    0.00000001    0.00000031
     atom   12 type  1   force =     0.00002619    0.00000002   -0.00000181
     atom   13 type  1   force =     0.00000976   -0.00000001    0.00000094
     atom   14 type  1   force =    -0.00003117    0.00000002   -0.00000097
     atom   15 type  1   force =     0.00008731    0.00000002    0.00000167
     atom   16 type  1   force =    -0.00007997    0.00000000   -0.00000249
     atom   17 type  1   force =     0.00003898    0.00000003    0.00000187
     atom   18 type  1   force =    -0.00001322   -0.00000003   -0.00000619
     atom   19 type  1   force =    -0.00003034    0.00000002    0.00000144
     atom   20 type  1   force =     0.00002012    0.00000003   -0.00000593
     atom   21 type  1   force =    -0.00002709   -0.00000000   -0.00000030
     atom   22 type  1   force =     0.00002557   -0.00000003    0.00000181
     atom   23 type  1   force =     0.00001257    0.00000002   -0.00000093
     atom   24 type  1   force =    -0.00003229   -0.00000003    0.00000099
     atom   25 type  1   force =     0.00008678   -0.00000001   -0.00000166
     atom   26 type  1   force =    -0.00008071   -0.00000000    0.00000249
     atom   27 type  1   force =     0.00003449   -0.00000003   -0.00000191
     atom   28 type  1   force =    -0.00001251    0.00000004    0.00000618
     atom   29 type  1   force =    -0.00003063   -0.00000003   -0.00000141
     atom   30 type  1   force =     0.00002156   -0.00000003    0.00000596
     atom   31 type  1   force =    -0.00002715    0.00000001   -0.00000030
     atom   32 type  1   force =     0.00002540    0.00000003    0.00000180
     atom   33 type  1   force =     0.00001258   -0.00000002   -0.00000093
     atom   34 type  1   force =    -0.00003222    0.00000002    0.00000099
     atom   35 type  1   force =     0.00008688    0.00000001   -0.00000166
     atom   36 type  1   force =    -0.00008065    0.00000001    0.00000249
     atom   37 type  1   force =     0.00003459    0.00000002   -0.00000192
     atom   38 type  1   force =    -0.00001257   -0.00000004    0.00000618
     atom   39 type  1   force =    -0.00003070    0.00000003   -0.00000141
     atom   40 type  1   force =     0.00002153    0.00000003    0.00000593

     Total force =     0.000279     Total SCF correction =     0.000035
     SCF correction compared to forces is large: reduce conv_thr to get better values

     Computing stress (Cartesian axis) and pressure

     negative rho (up, down):  2.705E-03 0.000E+00
          total   stress  (Ry/bohr**3)                   (kbar)     P=       -7.88
  -0.00000062  -0.00000000  -0.00000000           -0.09       -0.00       -0.00
  -0.00000000  -0.00011349  -0.00000000           -0.00      -16.69       -0.00
  -0.00000000  -0.00000000  -0.00004659           -0.00       -0.00       -6.85

     Energy error            =      1.3E-06 Ry
     Gradient error          =      8.7E-05 Ry/Bohr

     bfgs converged in  13 scf cycles and  12 bfgs steps
     (criteria: energy <  1.0E-04 Ry, force <  1.0E-04 Ry/Bohr)

     End of BFGS Geometry Optimization

     Final energy             =  -31005.1794526440 Ry

     File ./gold.bfgs deleted, as requested
Begin final coordinates

ATOMIC_POSITIONS (crystal)
Au            0.0042484351        0.0000000000        0.0000000000    1   0   0
Au            0.0585282035        0.2500000000        0.2500000000    1   0   0
Au            0.1263300110        0.0000000000        0.0000000000    1   0   0
Au            0.1867311954        0.2500000000        0.2500000000    1   0   0
Au            0.2504036180        0.0000000000        0.0000000000    1   0   0
Au            0.3120941733        0.2500000000        0.2500000000    1   0   0
Au            0.3757645819        0.0000000000        0.0000000000    1   0   0
Au            0.4361721857        0.2500000000        0.2500000000    1   0   0
Au            0.5039722783        0.0000000000        0.0000000000    1   0   0
Au            0.5582549692        0.2500000000        0.2500000000    1   0   0
Au            0.0042484758        0.5000000000        0.0000000000    1   0   0
Au            0.0585281599        0.7500000000        0.2500000000    1   0   0
Au            0.1263300350        0.5000000000        0.0000000000    1   0   0
Au            0.1867311893        0.7500000000        0.2500000000    1   0   0
Au            0.2504036236        0.5000000000        0.0000000000    1   0   0
Au            0.3120941893        0.7500000000        0.2500000000    1   0   0
Au            0.3757645724        0.5000000000        0.0000000000    1   0   0
Au            0.4361722221        0.7500000000        0.2500000000    1   0   0
Au            0.5039723147        0.5000000000        0.0000000000    1   0   0
Au            0.5582550179        0.7500000000        0.2500000000    1   0   0
Au            0.0042483920        0.0000000000        0.5000000000    1   0   0
Au            0.0585282950        0.2500000000        0.7500000000    1   0   0
Au            0.1263293850        0.0000000000        0.5000000000    1   0   0
Au            0.1867314422        0.2500000000        0.7500000000    1   0   0
Au            0.2504032663        0.0000000000        0.5000000000    1   0   0
Au            0.3120943869        0.2500000000        0.7500000000    1   0   0
Au            0.3757650884        0.0000000000        0.5000000000    1   0   0
Au            0.4361721220        0.2500000000        0.7500000000    1   0   0
Au            0.5039731717        0.0000000000        0.5000000000    1   0   0
Au            0.5582547117        0.2500000000        0.7500000000    1   0   0
Au            0.0042484052        0.5000000000        0.5000000000    1   0   0
Au            0.0585283570        0.7500000000        0.7500000000    1   0   0
Au            0.1263293796        0.5000000000        0.5000000000    1   0   0
Au            0.1867314315        0.7500000000        0.7500000000    1   0   0
Au            0.2504032357        0.5000000000        0.5000000000    1   0   0
Au            0.3120943689        0.7500000000        0.7500000000    1   0   0
Au            0.3757650597        0.5000000000        0.5000000000    1   0   0
Au            0.4361721325        0.7500000000        0.7500000000    1   0   0
Au            0.5039731936        0.5000000000        0.5000000000    1   0   0
Au            0.5582547237        0.7500000000        0.7500000000    1   0   0
End final coordinates

     Writing all to output data dir ./gold.save/

     General routines

     Parallel routines

   This run was terminated on:   1:50: 6   2Feb2024

   JOB DONE.