     Program PWSCF v.7.0 starts on  9Feb2024 at  7:18:11

     R & G space division:  proc/nbgrp/npool/nimage =      25

     Reading input from DisplacedFCC1.in
Warning: card &CELL ignored
Warning: card / ignored

     Current dimensions of program PWSCF are:
     Max number of different atomic species (ntypx) = 10
     Max number of k-points (npk) =  40000
     Max angular momentum in pseudopotentials (lmaxx) =  4
     file Au.pbe-n-kjpaw_psl.1.0.0.UPF: wavefunction(s)  6S 5D renormalized

     Using Slab Decomposition

     bravais-lattice index     =            0
     lattice parameter (alat)  =      15.8440  a.u.
     unit-cell volume          =    5936.3722 (a.u.)^3
     number of atoms/cell      =           48
     number of atomic types    =            1
     number of electrons       =       528.00
     number of Kohn-Sham states=          317
     kinetic-energy cutoff     =      50.0000  Ry
     charge density cutoff     =     200.0000  Ry
     scf convergence threshold =      1.0E-06
     mixing beta               =       0.7000
     number of iterations used =            8  plain     mixing
     Exchange-correlation= SLA  PW   PBX  PBC
                           (   1   4   3   4   0   0   0)

     celldm(1)=  15.844017  celldm(2)=   0.000000  celldm(3)=   0.000000
     celldm(4)=   0.000000  celldm(5)=   0.000000  celldm(6)=   0.000000

     crystal axes: (cart. coord. in units of alat)
               a(1) = (   1.000000   0.000000   0.000000 )
               a(2) = (   0.000000   1.000000   0.000000 )
               a(3) = (   0.000000   0.000000   1.492537 )

     reciprocal axes: (cart. coord. in units 2 pi/alat)
               b(1) = (  1.000000  0.000000  0.000000 )
               b(2) = (  0.000000  1.000000  0.000000 )
               b(3) = (  0.000000  0.000000  0.670000 )

     PseudoPot. # 1 for Au read from file:
     ./Au.pbe-n-kjpaw_psl.1.0.0.UPF
     MD5 check sum: 4db85c736373c707a97ce4c36c2a9d23
     Pseudo is Projector augmented-wave + core cor, Zval = 11.0
     Generated using &quot;atomic&quot; code by A. Dal Corso  v.6.3
     Shape of augmentation charge: PSQ
     Using radial grid of 1279 points,  6 beta functions with:
                l(1) =   0
                l(2) =   0
                l(3) =   1
                l(4) =   1
                l(5) =   2
                l(6) =   2
     Q(r) pseudized with 0 coefficients

     atomic species   valence    mass     pseudopotential
        Au            11.00   196.96657     Au( 1.00)

     No symmetry found

   Cartesian axes

     site n.     atom                  positions (alat units)
         1           Au  tau(   1) = (   0.0000000   0.0000000   0.0000000  )
         2           Au  tau(   2) = (   0.2487778   0.2495581   0.0000000  )
         3           Au  tau(   3) = (   0.2492365   0.0000000   0.2485226  )
         4           Au  tau(   4) = (   0.0000000   0.2484869   0.2484736  )
         5           Au  tau(   5) = (   0.4975056   0.0000000   0.0000000  )
         6           Au  tau(   6) = (   0.7433066   0.2484079   0.0000000  )
         7           Au  tau(   7) = (   0.7436577   0.0000000   0.2498461  )
         8           Au  tau(   8) = (   0.4993291   0.2498037   0.2497420  )
         9           Au  tau(   9) = (   0.0000000   0.4971694   0.0000000  )
        10           Au  tau(  10) = (   0.2498568   0.7494000   0.0000000  )
        11           Au  tau(  11) = (   0.2479675   0.4977039   0.2497502  )
        12           Au  tau(  12) = (   0.0000000   0.7467256   0.2481351  )
        13           Au  tau(  13) = (   0.4969683   0.4979722   0.0000000  )
        14           Au  tau(  14) = (   0.7497049   0.7479116   0.0000000  )
        15           Au  tau(  15) = (   0.7458418   0.4981473   0.2491701  )
        16           Au  tau(  16) = (   0.4972729   0.7458982   0.2487736  )
        17           Au  tau(  17) = (   0.0000000   0.0000000   0.4968975  )
        18           Au  tau(  18) = (   0.2477267   0.2490147   0.4977941  )
        19           Au  tau(  19) = (   0.2485524   0.0000000   0.7465488  )
        20           Au  tau(  20) = (   0.0000000   0.2495584   0.7450000  )
        21           Au  tau(  21) = (   0.4953779   0.0000000   0.4959762  )
        22           Au  tau(  22) = (   0.7483954   0.2494668   0.4956601  )
        23           Au  tau(  23) = (   0.7497398   0.0000000   0.7498676  )
        24           Au  tau(  24) = (   0.4998243   0.2495425   0.7451398  )
        25           Au  tau(  25) = (   0.0000000   0.4976146   0.4973256  )
        26           Au  tau(  26) = (   0.2490792   0.7455921   0.4963018  )
        27           Au  tau(  27) = (   0.2497012   0.4985048   0.7473414  )
        28           Au  tau(  28) = (   0.0000000   0.7454112   0.7494325  )
        29           Au  tau(  29) = (   0.4998070   0.4968931   0.4962447  )
        30           Au  tau(  30) = (   0.7458680   0.7466908   0.4993394  )
        31           Au  tau(  31) = (   0.7497199   0.4953723   0.7488677  )
        32           Au  tau(  32) = (   0.4975685   0.7467935   0.7461928  )
        33           Au  tau(  33) = (   0.0000000   0.0000000   0.9936628  )
        34           Au  tau(  34) = (   0.2492956   0.2479272   0.9976251  )
        35           Au  tau(  35) = (   0.2488433   0.0000000   1.2404664  )
        36           Au  tau(  36) = (   0.0000000   0.2497859   1.2411402  )
        37           Au  tau(  37) = (   0.4982366   0.0000000   0.9925941  )
        38           Au  tau(  38) = (   0.7486413   0.2498636   0.9914097  )
        39           Au  tau(  39) = (   0.7490550   0.0000000   1.2489853  )
        40           Au  tau(  40) = (   0.4961183   0.2493409   1.2405007  )
        41           Au  tau(  41) = (   0.0000000   0.4951437   0.9946518  )
        42           Au  tau(  42) = (   0.2485145   0.7482043   0.9996618  )
        43           Au  tau(  43) = (   0.2487116   0.4950252   1.2387422  )
        44           Au  tau(  44) = (   0.0000000   0.7495958   1.2420184  )
        45           Au  tau(  45) = (   0.4973267   0.4997893   0.9919612  )
        46           Au  tau(  46) = (   0.7451452   0.7446486   0.9946831  )
        47           Au  tau(  47) = (   0.7446191   0.4975566   1.2386030  )
        48           Au  tau(  48) = (   0.4986890   0.7439814   1.2437458  )

     number of k points=    63  Gaussian smearing, width (Ry)=  0.0020
                       cart. coord. in units 2pi/alat
        k(    1) = (   0.0000000   0.0000000   0.0000000), wk =   0.0160000
        k(    2) = (   0.0000000   0.0000000   0.1340000), wk =   0.0320000
        k(    3) = (   0.0000000   0.0000000   0.2680000), wk =   0.0320000
        k(    4) = (   0.0000000   0.2000000   0.0000000), wk =   0.0320000
        k(    5) = (   0.0000000   0.2000000   0.1340000), wk =   0.0320000
        k(    6) = (   0.0000000   0.2000000   0.2680000), wk =   0.0320000
        k(    7) = (   0.0000000   0.4000000   0.0000000), wk =   0.0320000
        k(    8) = (   0.0000000   0.4000000   0.1340000), wk =   0.0320000
        k(    9) = (   0.0000000   0.4000000   0.2680000), wk =   0.0320000
        k(   10) = (   0.2000000   0.2000000   0.0000000), wk =   0.0320000
        k(   11) = (   0.2000000   0.2000000   0.1340000), wk =   0.0320000
        k(   12) = (   0.2000000   0.2000000   0.2680000), wk =   0.0320000
        k(   13) = (   0.2000000   0.4000000   0.0000000), wk =   0.0320000
        k(   14) = (   0.2000000   0.4000000   0.1340000), wk =   0.0320000
        k(   15) = (   0.2000000   0.4000000   0.2680000), wk =   0.0320000
        k(   16) = (   0.4000000   0.4000000   0.0000000), wk =   0.0320000
        k(   17) = (   0.4000000   0.4000000   0.1340000), wk =   0.0320000
        k(   18) = (   0.4000000   0.4000000   0.2680000), wk =   0.0320000
        k(   19) = (   0.2000000   0.0000000   0.0000000), wk =   0.0320000
        k(   20) = (   0.0000000  -0.2000000   0.1340000), wk =   0.0320000
        k(   21) = (   0.2000000   0.0000000  -0.1340000), wk =   0.0320000
        k(   22) = (  -0.2000000   0.0000000  -0.1340000), wk =   0.0320000
        k(   23) = (   0.0000000  -0.2000000   0.2680000), wk =   0.0320000
        k(   24) = (   0.2000000   0.0000000  -0.2680000), wk =   0.0320000
        k(   25) = (  -0.2000000   0.0000000  -0.2680000), wk =   0.0320000
        k(   26) = (   0.4000000   0.0000000   0.0000000), wk =   0.0320000
        k(   27) = (   0.0000000  -0.4000000   0.1340000), wk =   0.0320000
        k(   28) = (   0.4000000   0.0000000  -0.1340000), wk =   0.0320000
        k(   29) = (  -0.4000000   0.0000000  -0.1340000), wk =   0.0320000
        k(   30) = (   0.0000000  -0.4000000   0.2680000), wk =   0.0320000
        k(   31) = (   0.4000000   0.0000000  -0.2680000), wk =   0.0320000
        k(   32) = (  -0.4000000   0.0000000  -0.2680000), wk =   0.0320000
        k(   33) = (  -0.2000000   0.2000000   0.0000000), wk =   0.0320000
        k(   34) = (  -0.2000000  -0.2000000   0.1340000), wk =   0.0320000
        k(   35) = (  -0.2000000   0.2000000  -0.1340000), wk =   0.0320000
        k(   36) = (   0.2000000  -0.2000000  -0.1340000), wk =   0.0320000
        k(   37) = (  -0.2000000  -0.2000000   0.2680000), wk =   0.0320000
        k(   38) = (  -0.2000000   0.2000000  -0.2680000), wk =   0.0320000
        k(   39) = (   0.2000000  -0.2000000  -0.2680000), wk =   0.0320000
        k(   40) = (  -0.2000000   0.4000000   0.0000000), wk =   0.0320000
        k(   41) = (   0.4000000   0.2000000   0.0000000), wk =   0.0320000
        k(   42) = (   0.4000000  -0.2000000   0.0000000), wk =   0.0320000
        k(   43) = (  -0.2000000  -0.4000000   0.1340000), wk =   0.0320000
        k(   44) = (  -0.2000000   0.4000000  -0.1340000), wk =   0.0320000
        k(   45) = (   0.2000000  -0.4000000  -0.1340000), wk =   0.0320000
        k(   46) = (   0.4000000   0.2000000  -0.1340000), wk =   0.0320000
        k(   47) = (  -0.4000000  -0.2000000  -0.1340000), wk =   0.0320000
        k(   48) = (   0.4000000  -0.2000000   0.1340000), wk =   0.0320000
        k(   49) = (  -0.4000000   0.2000000   0.1340000), wk =   0.0320000
        k(   50) = (  -0.2000000  -0.4000000   0.2680000), wk =   0.0320000
        k(   51) = (  -0.2000000   0.4000000  -0.2680000), wk =   0.0320000
        k(   52) = (   0.2000000  -0.4000000  -0.2680000), wk =   0.0320000
        k(   53) = (   0.4000000   0.2000000  -0.2680000), wk =   0.0320000
        k(   54) = (  -0.4000000  -0.2000000  -0.2680000), wk =   0.0320000
        k(   55) = (   0.4000000  -0.2000000   0.2680000), wk =   0.0320000
        k(   56) = (  -0.4000000   0.2000000   0.2680000), wk =   0.0320000
        k(   57) = (  -0.4000000   0.4000000   0.0000000), wk =   0.0320000
        k(   58) = (  -0.4000000  -0.4000000   0.1340000), wk =   0.0320000
        k(   59) = (  -0.4000000   0.4000000  -0.1340000), wk =   0.0320000
        k(   60) = (   0.4000000  -0.4000000  -0.1340000), wk =   0.0320000
        k(   61) = (  -0.4000000  -0.4000000   0.2680000), wk =   0.0320000
        k(   62) = (  -0.4000000   0.4000000  -0.2680000), wk =   0.0320000
        k(   63) = (   0.4000000  -0.4000000  -0.2680000), wk =   0.0320000

     Initial potential from superposition of free atoms

     starting charge     527.9947, renormalised to     528.0000
     Starting wfcs are  432 randomized atomic wfcs
     Checking if some PAW data can be deallocated...

     Self-consistent Calculation

     iteration #  1     ecut=    50.00 Ry     beta= 0.70
     Davidson diagonalization with overlap
     ethr =  1.00E-02,  avg # of iterations =  4.0

     Threshold (ethr) on eigenvalues was too large:
     Diagonalizing with lowered threshold

     Davidson diagonalization with overlap
     ethr =  2.99E-04,  avg # of iterations =  5.4

     total energy              =  -37205.85827238 Ry
     estimated scf accuracy    <       2.20876639 Ry

[...]

     iteration #  3     ecut=    50.00 Ry     beta= 0.70
     Davidson diagonalization with overlap
     c_bands:  1 eigenvalues not converged
     c_bands:  1 eigenvalues not converged
     c_bands:  1 eigenvalues not converged
     c_bands:  1 eigenvalues not converged
     c_bands:  1 eigenvalues not converged
     c_bands:  1 eigenvalues not converged
     c_bands:  4 eigenvalues not converged
     ethr =  5.32E-05,  avg # of iterations = 10.8

[...]

     iteration # 13     ecut=    50.00 Ry     beta= 0.70
     Davidson diagonalization with overlap
     c_bands:  1 eigenvalues not converged
     ethr =  3.57E-09,  avg # of iterations =  4.4

     total energy              =  -37206.66303554 Ry
     estimated scf accuracy    <       0.00000497 Ry

     iteration # 14     ecut=    50.00 Ry     beta= 0.70
     Davidson diagonalization with overlap
     ethr =  9.41E-10,  avg # of iterations =  5.0

     End of self-consistent calculation

          k = 0.0000 0.0000 0.0000 ( 35433 PWs)   bands (ev):

     5.1637   6.3002   6.3524   7.4195   7.4443   7.4585   7.4680   7.7501
     7.7512   7.7589   7.7601   7.7774   7.7784   7.7844   7.7873   7.8607
     7.8616   7.8684   8.0427   8.0542   8.1361   8.1381   8.1410   8.1569
     8.1820   8.1955   8.2064   8.2224   8.2258   8.2341   8.2412   8.5170
     8.5264   8.5302   8.5529   8.5649   8.5714   8.6956   8.7097   8.7178
     8.7308   8.7528   8.7554   8.7989   8.8012   8.8502   8.8559   8.8656
     8.8720   8.9507   8.9670   8.9859   8.9884   9.0040   9.0224   9.0259
     9.0318   9.0347   9.0385   9.0418   9.0448   9.2438   9.2600   9.2789
     9.2895   9.2933   9.3009   9.3050   9.3170   9.4496   9.4623   9.4667
     9.4723   9.4784   9.4844   9.4871   9.4915   9.4938   9.4995   9.5036
     9.5085   9.5177   9.5290   9.5321   9.5561   9.5646   9.5669   9.5757
     9.5813   9.5869   9.5895   9.5939   9.5953   9.6011   9.6139   9.6165
     9.6197   9.6345   9.6384   9.8195   9.8217   9.8236   9.8290   9.8555
     9.8641   9.8752   9.8778   9.8835   9.8885   9.8949   9.8959   9.8993
     9.9026   9.9061   9.9083   9.9147   9.9154   9.9176   9.9283   9.9541
     9.9546   9.9937  10.0357  10.0365  10.0400  10.0454  10.0641  10.0680
    10.0697  10.0715  10.4451  10.4468  10.4826  10.4839  10.5706  10.5829
    10.6017  10.6151  10.6229  10.6235  10.6544  10.6559  10.7782  10.7796
    10.7837  10.7861  10.7951  10.8273  10.9772  10.9853  10.9915  10.9966
    10.9968  11.0047  11.0080  11.0092  11.0391  11.0444  11.0545  11.0576
    11.0611  11.0655  11.0707  11.0748  11.0776  11.0801  11.0826  11.0885
    11.0904  11.0929  11.0960  11.1026  11.1093  11.1123  11.1158  11.1163
    11.1229  11.1308  11.1355  11.1483  11.1903  11.1955  11.2022  11.2053
    11.2688  11.2849  11.2995  11.3158  11.3208  11.3296  11.5047  11.5368
    11.5523  11.5568  11.5598  11.5601  11.5627  11.5670  11.5716  11.5747
    11.5776  11.5838  11.5892  11.5894  11.5994  11.6127  11.7472  11.7491
    11.7594  11.7653  11.7733  11.7789  11.7871  11.7882  11.7921  11.8012
    11.8060  11.8072  11.8099  11.8149  11.8265  11.8281  12.0334  12.0459
    12.1690  12.1743  12.1797  12.1802  12.1848  12.1889  12.1939  12.1949
    12.3139  12.3166  12.3170  12.6047  12.6205  12.6237  12.6247  12.6270
    12.6319  12.6350  12.6372  12.6388  12.6422  12.6581  12.6613  12.6635
    12.6670  12.9045  12.9088  12.9114  12.9142  12.9146  12.9185  12.9195
    12.9262  13.7962  13.8106  13.8223  13.8272  13.8311  13.8333  13.8486
    13.8515  13.8950  13.9058  13.9135  13.9247  15.2799  15.2855  15.3144
    15.3182  15.3274  15.3306  15.3388  15.3456  15.4998  15.5031  15.5827
    17.9513  17.9593  17.9748  17.9810  17.9845  17.9933  18.0076  18.0181
    18.3420  18.3425  18.3933  18.3941  18.6838  18.6850  18.6856  18.6866
    18.8072  18.8110  18.8143  18.8167  19.4488  19.4493  19.5560  20.2974
    20.3268  20.3573  20.3717  20.3816  20.4007  20.4351  20.4485  21.3650
    21.3783  21.3868  21.3881  21.3917  21.3990

[...]

          k =-0.2000 0.0000-0.1340 ( 35446 PWs)   bands (ev):

[...]

          k =-0.4000 0.4000-0.2680 ( 35434 PWs)   bands (ev):

[...]

          k = 0.4000-0.4000-0.2680 ( 35434 PWs)   bands (ev):

     6.1530   6.3496   6.5958   6.6218   6.7574   6.7760   7.0006   7.0926
     7.6346   7.6856   7.7398   7.7613   7.8765   7.9550   7.9913   8.0133
     8.2446   8.2482   8.2697   8.2754   8.2919   8.3087   8.3189   8.3244
     8.3338   8.3453   8.3516   8.3601   8.4004   8.4019   8.4529   8.4620
     8.4678   8.4726   8.4761   8.4810   8.4859   8.4902   8.4985   8.5165
     8.5206   8.5397   8.5441   8.5516   8.5621   8.5725   8.6804   8.6874
     8.7649   8.8062   8.8091   8.8558   8.8601   8.8619   8.8722   8.8799
     8.9773   8.9862   9.0375   9.0581   9.0608   9.0680   9.1354   9.1380
     9.1442   9.1525   9.1879   9.1888   9.2430   9.2440   9.2896   9.3551
     9.3594   9.3621   9.4077   9.4095   9.4192   9.4238   9.4418   9.5411
     9.5577   9.5584   9.6302   9.6362   9.6899   9.7257   9.7316   9.7491
     9.7807   9.8267   9.8339   9.8689   9.8923   9.8986   9.9099   9.9193
     9.9299   9.9922  10.0009  10.0131  10.0173  10.0247  10.0444  10.0855
    10.0908  10.0962  10.0992  10.1043  10.1833  10.1884  10.1989  10.2158
    10.2244  10.2269  10.2325  10.2374  10.2408  10.2519  10.2673  10.2729
    10.2751  10.2827  10.2863  10.2896  10.2961  10.3005  10.3075  10.3141
    10.3195  10.3286  10.3334  10.3358  10.3418  10.3480  10.3543  10.3573
    10.3671  10.3697  10.3728  10.3777  10.3838  10.3878  10.4316  10.4547
    10.4620  10.4688  10.4773  10.4876  10.5016  10.5090  10.5203  10.5230
    10.5457  10.6290  10.7170  10.7180  10.7289  10.7338  10.7470  10.7517
    10.7539  10.7612  10.7791  10.9002  10.9025  10.9341  10.9393  10.9420
    10.9749  10.9879  10.9933  11.1006  11.1124  11.1193  11.1261  11.1307
    11.1355  11.1603  11.1783  11.1846  11.2091  11.2181  11.2204  11.2296
    11.2626  11.2797  11.3034  11.3066  11.3184  11.3223  11.3509  11.3758
    11.3777  11.3855  11.4048  11.4179  11.4200  11.4425  11.4571  11.5503
    11.5625  11.5670  11.5840  11.5897  11.6153  11.6166  11.7547  11.7796
    11.7931  11.8186  11.8486  11.9922  12.0370  12.0470  12.1445  12.1573
    12.1740  12.1781  12.1816  12.1838  12.2360  12.2412  12.2447  12.2480
    12.2493  12.2726  12.2734  12.2944  12.3177  12.3302  12.3350  12.3451
    12.3507  12.3618  12.3645  12.3670  12.3692  12.3722  12.3759  12.3904
    12.3920  12.3956  12.3988  12.4094  12.4183  12.4198  12.4209  12.4509
    12.4551  12.4579  12.4640  12.4680  12.4704  12.8411  12.8532  12.9652
    13.6779  13.6887  13.9873  13.9994  14.3660  14.3666  14.5872  14.5882
    14.9204  14.9209  15.3000  15.3006  15.3461  15.6403  15.6521  15.7806
    15.7928  15.9537  15.9634  15.9880  16.0016  16.0177  16.0243  16.3060
    16.3247  16.3344  16.6092  16.9643  16.9755  17.0698  17.0751  17.0892
    17.0929  17.2876  17.7507  17.7566  17.8301  17.8379  17.9429  18.0278
    18.3090  18.3146  18.8176  18.8468  19.1709  19.1953  19.2301  19.2321
    19.6705  20.0054  20.0064  20.1223  20.1245  20.2399  20.2592  20.2719
    20.2761  20.9771  20.9796  20.9982  20.9990

     the Fermi energy is    14.2472 ev

!    total energy              =  -37206.66303760 Ry

     total all-electron energy =  -1825151.275408 Ry
     estimated scf accuracy    <       0.00000046 Ry
     smearing contrib. (-TS)   =      -0.00049919 Ry
     internal energy E=F+TS    =  -37206.66253841 Ry

     The total energy is F=E-TS. E is the sum of the following terms:
     one-electron contribution =     538.67983607 Ry
     hartree contribution      =     400.35702457 Ry
     xc contribution           =   -1538.94382025 Ry
     ewald contribution        =   -3366.15907098 Ry
     one-center paw contrib.   =  -33240.59650782 Ry

     convergence has been achieved in  14 iterations

     Forces acting on atoms (cartesian axes, Ry/au):

     atom    1 type  1   force =    -0.00200735   -0.00111183    0.00150875
     atom    2 type  1   force =    -0.00022032   -0.00124359   -0.00101861
     atom    3 type  1   force =    -0.00139045   -0.00308307   -0.00077806
     atom    4 type  1   force =    -0.00526833   -0.00070954   -0.00216093
     atom    5 type  1   force =    -0.00159754   -0.00436290   -0.00182793
     atom    6 type  1   force =     0.00846308    0.00337217   -0.00191837
     atom    7 type  1   force =     0.00802274   -0.00574745   -0.00028903
     atom    8 type  1   force =    -0.00467112   -0.00090106   -0.00168786
     atom    9 type  1   force =    -0.00472981    0.00160260   -0.00363476
     atom   10 type  1   force =    -0.00166722   -0.00073329   -0.00309631
     atom   11 type  1   force =     0.00090984    0.00009864   -0.00270073
     atom   12 type  1   force =    -0.00511050    0.00435549    0.00133992
     atom   13 type  1   force =     0.00020324    0.00105298   -0.00161148
     atom   14 type  1   force =     0.00073384   -0.00062076    0.00026790
     atom   15 type  1   force =     0.00726187    0.00214583   -0.00324438
     atom   16 type  1   force =     0.00163621    0.00453554   -0.00130471
     atom   17 type  1   force =    -0.00495057   -0.00682561    0.00074663
     atom   18 type  1   force =     0.00236121    0.00005255    0.00035785
     atom   19 type  1   force =     0.00028749   -0.00455077   -0.00140053
     atom   20 type  1   force =     0.00007146   -0.00248283   -0.00067074
     atom   21 type  1   force =     0.00363189   -0.00425091    0.00493341
     atom   22 type  1   force =     0.00298269   -0.00336791    0.00316623
     atom   23 type  1   force =    -0.00010034   -0.00574621   -0.00757257
     atom   24 type  1   force =    -0.00295361   -0.00214890   -0.00150034
     atom   25 type  1   force =    -0.00428706    0.00306692    0.00048008
     atom   26 type  1   force =    -0.00175453    0.00516396    0.00310378
     atom   27 type  1   force =    -0.00046385   -0.00025281   -0.00160323
     atom   28 type  1   force =    -0.00217587    0.00489793   -0.00428151
     atom   29 type  1   force =    -0.00219705    0.00165737    0.00423069
     atom   30 type  1   force =     0.00581647    0.00514087    0.00029685
     atom   31 type  1   force =     0.00068052    0.00528022   -0.00757696
     atom   32 type  1   force =    -0.00014051    0.00527973   -0.00256088
     atom   33 type  1   force =    -0.00539352   -0.00393495    0.00168168
     atom   34 type  1   force =     0.00076437   -0.00082731   -0.01020728
     atom   35 type  1   force =     0.00179359   -0.00393074    0.00709982
     atom   36 type  1   force =    -0.00780980   -0.00197320    0.00676585
     atom   37 type  1   force =     0.00356885   -0.00439747    0.00386815
     atom   38 type  1   force =    -0.00008960   -0.00590816    0.00794825
     atom   39 type  1   force =    -0.00092191   -0.00223080   -0.00904860
     atom   40 type  1   force =     0.00582206   -0.00295690    0.00343228
     atom   41 type  1   force =    -0.00215362    0.00551828    0.00044889
     atom   42 type  1   force =     0.00045642    0.00248904   -0.00713880
     atom   43 type  1   force =    -0.00150009    0.00657725    0.01051976
     atom   44 type  1   force =    -0.00456075   -0.00223884    0.00352426
     atom   45 type  1   force =    -0.00089386   -0.00310889    0.00006359
     atom   46 type  1   force =     0.00595611    0.00956442    0.00168066
     atom   47 type  1   force =     0.00757547   -0.00109431    0.00866736
     atom   48 type  1   force =     0.00000977    0.00888925    0.00270196

     Total force =     0.048810     Total SCF correction =     0.003815

     Writing all to output data dir ./pwscf.save/

     General routines

     Parallel routines

   This run was terminated on:   8:11:23   9Feb2024

   JOB DONE.