     Program PWSCF v.7.0 starts on  9Feb2024 at  7:18:16

     R & G space division:  proc/nbgrp/npool/nimage =      25

     Reading input from DisplacedFCC2.in
Warning: card &CELL ignored
Warning: card / ignored

     Current dimensions of program PWSCF are:
     Max number of different atomic species (ntypx) = 10
     Max number of k-points (npk) =  40000
     Max angular momentum in pseudopotentials (lmaxx) =  4
     file Au.pbe-n-kjpaw_psl.1.0.0.UPF: wavefunction(s)  6S 5D renormalized

     Using Slab Decomposition

     bravais-lattice index     =            0
     lattice parameter (alat)  =      15.8440  a.u.
     unit-cell volume          =    5936.3722 (a.u.)^3
     number of atoms/cell      =           48
     number of atomic types    =            1
     number of electrons       =       528.00
     number of Kohn-Sham states=          317
     kinetic-energy cutoff     =      50.0000  Ry
     charge density cutoff     =     200.0000  Ry
     scf convergence threshold =      1.0E-06
     mixing beta               =       0.7000
     number of iterations used =            8  plain     mixing
     Exchange-correlation= SLA  PW   PBX  PBC
                           (   1   4   3   4   0   0   0)

     celldm(1)=  15.844017  celldm(2)=   0.000000  celldm(3)=   0.000000
     celldm(4)=   0.000000  celldm(5)=   0.000000  celldm(6)=   0.000000

     crystal axes: (cart. coord. in units of alat)
               a(1) = (   1.000000   0.000000   0.000000 )
               a(2) = (   0.000000   1.000000   0.000000 )
               a(3) = (   0.000000   0.000000   1.492537 )

     reciprocal axes: (cart. coord. in units 2 pi/alat)
               b(1) = (  1.000000  0.000000  0.000000 )
               b(2) = (  0.000000  1.000000  0.000000 )
               b(3) = (  0.000000  0.000000  0.670000 )

     PseudoPot. # 1 for Au read from file:
     ./Au.pbe-n-kjpaw_psl.1.0.0.UPF
     MD5 check sum: 4db85c736373c707a97ce4c36c2a9d23
     Pseudo is Projector augmented-wave + core cor, Zval = 11.0
     Generated using &quot;atomic&quot; code by A. Dal Corso  v.6.3
     Shape of augmentation charge: PSQ
     Using radial grid of 1279 points,  6 beta functions with:
                l(1) =   0
                l(2) =   0
                l(3) =   1
                l(4) =   1
                l(5) =   2
                l(6) =   2
     Q(r) pseudized with 0 coefficients

     atomic species   valence    mass     pseudopotential
        Au            11.00   196.96657     Au( 1.00)

     No symmetry found

   Cartesian axes

     site n.     atom                  positions (alat units)
         1           Au  tau(   1) = (   0.0000000   0.0000000   0.0000000  )
         2           Au  tau(   2) = (   0.2482661   0.2489304   0.0000000  )
         3           Au  tau(   3) = (   0.2489308   0.0000000   0.2490783  )
         4           Au  tau(   4) = (   0.0000000   0.2486454   0.2488872  )
         5           Au  tau(   5) = (   0.4970379   0.0000000   0.0000000  )
         6           Au  tau(   6) = (   0.7434733   0.2482985   0.0000000  )
         7           Au  tau(   7) = (   0.7459536   0.0000000   0.2490493  )
         8           Au  tau(   8) = (   0.4967862   0.2495039   0.2490169  )
         9           Au  tau(   9) = (   0.0000000   0.4990776   0.0000000  )
        10           Au  tau(  10) = (   0.2479717   0.7483864   0.0000000  )
        11           Au  tau(  11) = (   0.2489572   0.4971562   0.2491766  )
        12           Au  tau(  12) = (   0.0000000   0.7478417   0.2479333  )
        13           Au  tau(  13) = (   0.4959108   0.4950823   0.0000000  )
        14           Au  tau(  14) = (   0.7460718   0.7427511   0.0000000  )
        15           Au  tau(  15) = (   0.7429509   0.4997972   0.2483482  )
        16           Au  tau(  16) = (   0.4971564   0.7452604   0.2485229  )
        17           Au  tau(  17) = (   0.0000000   0.0000000   0.4988226  )
        18           Au  tau(  18) = (   0.2494763   0.2484768   0.4951852  )
        19           Au  tau(  19) = (   0.2486952   0.0000000   0.7444981  )
        20           Au  tau(  20) = (   0.0000000   0.2485894   0.7461773  )
        21           Au  tau(  21) = (   0.4951537   0.0000000   0.4994624  )
        22           Au  tau(  22) = (   0.7483827   0.2488497   0.4981944  )
        23           Au  tau(  23) = (   0.7442389   0.0000000   0.7458127  )
        24           Au  tau(  24) = (   0.4987944   0.2494415   0.7490561  )
        25           Au  tau(  25) = (   0.0000000   0.4990803   0.4998133  )
        26           Au  tau(  26) = (   0.2475392   0.7451090   0.4986085  )
        27           Au  tau(  27) = (   0.2495620   0.4958601   0.7462110  )
        28           Au  tau(  28) = (   0.0000000   0.7499219   0.7457297  )
        29           Au  tau(  29) = (   0.4991867   0.4994950   0.4962644  )
        30           Au  tau(  30) = (   0.7483730   0.7491140   0.4952522  )
        31           Au  tau(  31) = (   0.7437640   0.4987898   0.7456017  )
        32           Au  tau(  32) = (   0.4979680   0.7499506   0.7474769  )
        33           Au  tau(  33) = (   0.0000000   0.0000000   0.9975418  )
        34           Au  tau(  34) = (   0.2477312   0.2488247   0.9999389  )
        35           Au  tau(  35) = (   0.2490822   0.0000000   1.2387526  )
        36           Au  tau(  36) = (   0.0000000   0.2478559   1.2425278  )
        37           Au  tau(  37) = (   0.4962624   0.0000000   0.9965886  )
        38           Au  tau(  38) = (   0.7463953   0.2478860   0.9959048  )
        39           Au  tau(  39) = (   0.7461189   0.0000000   1.2441043  )
        40           Au  tau(  40) = (   0.4992869   0.2486971   1.2446370  )
        41           Au  tau(  41) = (   0.0000000   0.4996263   0.9947504  )
        42           Au  tau(  42) = (   0.2476618   0.7463786   0.9984089  )
        43           Au  tau(  43) = (   0.2499605   0.4952486   1.2462582  )
        44           Au  tau(  44) = (   0.0000000   0.7489485   1.2398580  )
        45           Au  tau(  45) = (   0.4957617   0.4997442   0.9974626  )
        46           Au  tau(  46) = (   0.7437085   0.7485586   0.9934709  )
        47           Au  tau(  47) = (   0.7451553   0.4974389   1.2460600  )
        48           Au  tau(  48) = (   0.4980515   0.7442229   1.2422756  )

     number of k points=    63  Gaussian smearing, width (Ry)=  0.0020
                       cart. coord. in units 2pi/alat
        k(    1) = (   0.0000000   0.0000000   0.0000000), wk =   0.0160000
        k(    2) = (   0.0000000   0.0000000   0.1340000), wk =   0.0320000
        k(    3) = (   0.0000000   0.0000000   0.2680000), wk =   0.0320000
        k(    4) = (   0.0000000   0.2000000   0.0000000), wk =   0.0320000
        k(    5) = (   0.0000000   0.2000000   0.1340000), wk =   0.0320000
        k(    6) = (   0.0000000   0.2000000   0.2680000), wk =   0.0320000
        k(    7) = (   0.0000000   0.4000000   0.0000000), wk =   0.0320000
        k(    8) = (   0.0000000   0.4000000   0.1340000), wk =   0.0320000
        k(    9) = (   0.0000000   0.4000000   0.2680000), wk =   0.0320000
        k(   10) = (   0.2000000   0.2000000   0.0000000), wk =   0.0320000
        k(   11) = (   0.2000000   0.2000000   0.1340000), wk =   0.0320000
        k(   12) = (   0.2000000   0.2000000   0.2680000), wk =   0.0320000
        k(   13) = (   0.2000000   0.4000000   0.0000000), wk =   0.0320000
        k(   14) = (   0.2000000   0.4000000   0.1340000), wk =   0.0320000
        k(   15) = (   0.2000000   0.4000000   0.2680000), wk =   0.0320000
        k(   16) = (   0.4000000   0.4000000   0.0000000), wk =   0.0320000
        k(   17) = (   0.4000000   0.4000000   0.1340000), wk =   0.0320000
        k(   18) = (   0.4000000   0.4000000   0.2680000), wk =   0.0320000
        k(   19) = (   0.2000000   0.0000000   0.0000000), wk =   0.0320000
        k(   20) = (   0.0000000  -0.2000000   0.1340000), wk =   0.0320000
        k(   21) = (   0.2000000   0.0000000  -0.1340000), wk =   0.0320000
        k(   22) = (  -0.2000000   0.0000000  -0.1340000), wk =   0.0320000
        k(   23) = (   0.0000000  -0.2000000   0.2680000), wk =   0.0320000
        k(   24) = (   0.2000000   0.0000000  -0.2680000), wk =   0.0320000
        k(   25) = (  -0.2000000   0.0000000  -0.2680000), wk =   0.0320000
        k(   26) = (   0.4000000   0.0000000   0.0000000), wk =   0.0320000
        k(   27) = (   0.0000000  -0.4000000   0.1340000), wk =   0.0320000
        k(   28) = (   0.4000000   0.0000000  -0.1340000), wk =   0.0320000
        k(   29) = (  -0.4000000   0.0000000  -0.1340000), wk =   0.0320000
        k(   30) = (   0.0000000  -0.4000000   0.2680000), wk =   0.0320000
        k(   31) = (   0.4000000   0.0000000  -0.2680000), wk =   0.0320000
        k(   32) = (  -0.4000000   0.0000000  -0.2680000), wk =   0.0320000
        k(   33) = (  -0.2000000   0.2000000   0.0000000), wk =   0.0320000
        k(   34) = (  -0.2000000  -0.2000000   0.1340000), wk =   0.0320000
        k(   35) = (  -0.2000000   0.2000000  -0.1340000), wk =   0.0320000
        k(   36) = (   0.2000000  -0.2000000  -0.1340000), wk =   0.0320000
        k(   37) = (  -0.2000000  -0.2000000   0.2680000), wk =   0.0320000
        k(   38) = (  -0.2000000   0.2000000  -0.2680000), wk =   0.0320000
        k(   39) = (   0.2000000  -0.2000000  -0.2680000), wk =   0.0320000
        k(   40) = (  -0.2000000   0.4000000   0.0000000), wk =   0.0320000
        k(   41) = (   0.4000000   0.2000000   0.0000000), wk =   0.0320000
        k(   42) = (   0.4000000  -0.2000000   0.0000000), wk =   0.0320000
        k(   43) = (  -0.2000000  -0.4000000   0.1340000), wk =   0.0320000
        k(   44) = (  -0.2000000   0.4000000  -0.1340000), wk =   0.0320000
        k(   45) = (   0.2000000  -0.4000000  -0.1340000), wk =   0.0320000
        k(   46) = (   0.4000000   0.2000000  -0.1340000), wk =   0.0320000
        k(   47) = (  -0.4000000  -0.2000000  -0.1340000), wk =   0.0320000
        k(   48) = (   0.4000000  -0.2000000   0.1340000), wk =   0.0320000
        k(   49) = (  -0.4000000   0.2000000   0.1340000), wk =   0.0320000
        k(   50) = (  -0.2000000  -0.4000000   0.2680000), wk =   0.0320000
        k(   51) = (  -0.2000000   0.4000000  -0.2680000), wk =   0.0320000
        k(   52) = (   0.2000000  -0.4000000  -0.2680000), wk =   0.0320000
        k(   53) = (   0.4000000   0.2000000  -0.2680000), wk =   0.0320000
        k(   54) = (  -0.4000000  -0.2000000  -0.2680000), wk =   0.0320000
        k(   55) = (   0.4000000  -0.2000000   0.2680000), wk =   0.0320000
        k(   56) = (  -0.4000000   0.2000000   0.2680000), wk =   0.0320000
        k(   57) = (  -0.4000000   0.4000000   0.0000000), wk =   0.0320000
        k(   58) = (  -0.4000000  -0.4000000   0.1340000), wk =   0.0320000
        k(   59) = (  -0.4000000   0.4000000  -0.1340000), wk =   0.0320000
        k(   60) = (   0.4000000  -0.4000000  -0.1340000), wk =   0.0320000
        k(   61) = (  -0.4000000  -0.4000000   0.2680000), wk =   0.0320000
        k(   62) = (  -0.4000000   0.4000000  -0.2680000), wk =   0.0320000
        k(   63) = (   0.4000000  -0.4000000  -0.2680000), wk =   0.0320000

     Initial potential from superposition of free atoms

     starting charge     527.9947, renormalised to     528.0000
     Starting wfcs are  432 randomized atomic wfcs
     Checking if some PAW data can be deallocated...

     Self-consistent Calculation

     iteration #  1     ecut=    50.00 Ry     beta= 0.70
     Davidson diagonalization with overlap
     ethr =  1.00E-02,  avg # of iterations =  4.0

     Threshold (ethr) on eigenvalues was too large:
     Diagonalizing with lowered threshold

     Davidson diagonalization with overlap
     ethr =  2.99E-04,  avg # of iterations =  5.2

     total energy              =  -37205.85753219 Ry
     estimated scf accuracy    <       2.20948696 Ry

[...]

     iteration #  3     ecut=    50.00 Ry     beta= 0.70
     Davidson diagonalization with overlap
     c_bands:  1 eigenvalues not converged
     c_bands:  2 eigenvalues not converged
     c_bands:  1 eigenvalues not converged
     c_bands:  1 eigenvalues not converged
     ethr =  5.15E-05,  avg # of iterations =  8.7

[...]

     iteration # 13     ecut=    50.00 Ry     beta= 0.70
     Davidson diagonalization with overlap
     c_bands:  1 eigenvalues not converged
     ethr =  2.22E-09,  avg # of iterations =  4.3

     total energy              =  -37206.66273565 Ry
     estimated scf accuracy    <       0.00000150 Ry

     iteration # 14     ecut=    50.00 Ry     beta= 0.70
     Davidson diagonalization with overlap
     ethr =  2.84E-10,  avg # of iterations =  6.1

     End of self-consistent calculation

          k = 0.0000 0.0000 0.0000 ( 35433 PWs)   bands (ev):

     5.1638   6.3099   6.3420   7.4118   7.4360   7.4558   7.4894   7.7510
     7.7551   7.7611   7.7649   7.7741   7.7763   7.7797   7.7846   7.8607
     7.8622   7.8684   8.0436   8.0511   8.1394   8.1398   8.1417   8.1554
     8.1880   8.1908   8.1971   8.2115   8.2274   8.2352   8.2542   8.5245
     8.5318   8.5378   8.5486   8.5543   8.5632   8.6814   8.7085   8.7206
     8.7420   8.7625   8.7663   8.7873   8.7914   8.8465   8.8562   8.8664
     8.8757   8.9453   8.9598   8.9849   8.9995   9.0084   9.0153   9.0223
     9.0259   9.0292   9.0341   9.0481   9.0544   9.2455   9.2654   9.2694
     9.2790   9.2909   9.3058   9.3118   9.3323   9.4495   9.4629   9.4700
     9.4738   9.4752   9.4798   9.4815   9.4860   9.4925   9.4978   9.5062
     9.5086   9.5169   9.5322   9.5394   9.5450   9.5499   9.5656   9.5736
     9.5785   9.5845   9.5878   9.5900   9.6009   9.6085   9.6175   9.6237
     9.6279   9.6371   9.6433   9.8109   9.8211   9.8253   9.8344   9.8512
     9.8649   9.8761   9.8844   9.8855   9.8885   9.8906   9.8923   9.8971
     9.9000   9.9022   9.9073   9.9120   9.9161   9.9238   9.9327   9.9545
     9.9558   9.9930  10.0397  10.0441  10.0467  10.0486  10.0624  10.0631
    10.0668  10.0709  10.4523  10.4533  10.4775  10.4789  10.5600  10.5772
    10.6107  10.6244  10.6255  10.6310  10.6434  10.6484  10.7806  10.7822
    10.7849  10.7864  10.8007  10.8224  10.9747  10.9844  10.9898  10.9908
    11.0017  11.0050  11.0094  11.0138  11.0250  11.0377  11.0470  11.0505
    11.0544  11.0597  11.0643  11.0679  11.0728  11.0791  11.0809  11.0828
    11.0833  11.0908  11.0988  11.0992  11.1139  11.1161  11.1230  11.1292
    11.1317  11.1404  11.1477  11.1594  11.1878  11.1987  11.2029  11.2164
    11.2625  11.2752  11.2987  11.3144  11.3214  11.3458  11.5125  11.5330
    11.5523  11.5590  11.5603  11.5642  11.5675  11.5689  11.5715  11.5726
    11.5793  11.5827  11.5843  11.5876  11.5942  11.6066  11.7511  11.7553
    11.7627  11.7663  11.7719  11.7782  11.7820  11.7851  11.7879  11.7910
    11.8061  11.8092  11.8158  11.8177  11.8214  11.8345  12.0358  12.0437
    12.1659  12.1670  12.1793  12.1812  12.1830  12.1891  12.1968  12.2007
    12.3137  12.3171  12.3172  12.6123  12.6181  12.6251  12.6261  12.6267
    12.6300  12.6322  12.6367  12.6375  12.6437  12.6567  12.6615  12.6627
    12.6687  12.9033  12.9050  12.9097  12.9123  12.9161  12.9224  12.9236
    12.9256  13.7912  13.7973  13.8185  13.8254  13.8276  13.8402  13.8564
    13.8642  13.8866  13.9067  13.9153  13.9330  15.2807  15.2903  15.2969
    15.3108  15.3252  15.3372  15.3423  15.3589  15.5007  15.5019  15.5813
    17.9482  17.9616  17.9714  17.9802  17.9879  18.0010  18.0014  18.0206
    18.3508  18.3511  18.3834  18.3844  18.6839  18.6844  18.6858  18.6871
    18.8095  18.8112  18.8139  18.8155  19.4479  19.4494  19.5574  20.2814
    20.3116  20.3598  20.3655  20.3850  20.4018  20.4456  20.4704  21.3631
    21.3759  21.3853  21.3877  21.3934  21.4016

[...]

          k =-0.2000 0.0000-0.1340 ( 35446 PWs)   bands (ev):

[...]

          k =-0.4000 0.4000-0.2680 ( 35434 PWs)   bands (ev):

[...]

          k = 0.4000-0.4000-0.2680 ( 35434 PWs)   bands (ev):

     6.1526   6.3477   6.6030   6.6187   6.7593   6.7725   7.0026   7.0922
     7.6300   7.6869   7.7456   7.7576   7.8746   7.9543   7.9975   8.0082
     8.2466   8.2486   8.2680   8.2750   8.2941   8.3084   8.3174   8.3257
     8.3341   8.3454   8.3471   8.3605   8.4001   8.4044   8.4546   8.4631
     8.4657   8.4709   8.4775   8.4815   8.4853   8.4920   8.4963   8.5150
     8.5238   8.5374   8.5479   8.5537   8.5598   8.5655   8.6807   8.6898
     8.7660   8.8115   8.8125   8.8511   8.8569   8.8628   8.8711   8.8775
     8.9792   8.9850   9.0444   9.0553   9.0593   9.0649   9.1347   9.1367
     9.1433   9.1526   9.1869   9.1914   9.2408   9.2415   9.2900   9.3548
     9.3595   9.3616   9.4055   9.4103   9.4182   9.4237   9.4407   9.5425
     9.5574   9.5596   9.6228   9.6455   9.6908   9.7228   9.7369   9.7504
     9.7790   9.8215   9.8375   9.8721   9.8874   9.9014   9.9090   9.9201
     9.9283   9.9885  10.0026  10.0129  10.0146  10.0315  10.0365  10.0786
    10.0876  10.0930  10.1055  10.1126  10.1862  10.1874  10.1993  10.2168
    10.2205  10.2244  10.2287  10.2351  10.2439  10.2542  10.2679  10.2739
    10.2779  10.2808  10.2860  10.2891  10.2929  10.2990  10.3073  10.3158
    10.3205  10.3284  10.3307  10.3412  10.3469  10.3512  10.3591  10.3609
    10.3675  10.3702  10.3750  10.3767  10.3805  10.3851  10.4369  10.4485
    10.4543  10.4690  10.4767  10.4873  10.5064  10.5120  10.5204  10.5265
    10.5440  10.6293  10.7157  10.7206  10.7302  10.7390  10.7467  10.7506
    10.7529  10.7631  10.7731  10.9008  10.9050  10.9305  10.9388  10.9421
    10.9755  10.9878  10.9921  11.1039  11.1062  11.1194  11.1228  11.1270
    11.1415  11.1650  11.1794  11.1842  11.2085  11.2149  11.2206  11.2252
    11.2668  11.2825  11.3000  11.3073  11.3147  11.3194  11.3517  11.3735
    11.3782  11.3864  11.4068  11.4194  11.4224  11.4432  11.4531  11.5532
    11.5643  11.5723  11.5810  11.5900  11.6148  11.6184  11.7553  11.7810
    11.7903  11.8207  11.8463  11.9923  12.0388  12.0440  12.1472  12.1555
    12.1713  12.1774  12.1812  12.1866  12.2304  12.2414  12.2464  12.2497
    12.2536  12.2722  12.2738  12.2956  12.3181  12.3301  12.3370  12.3464
    12.3492  12.3599  12.3633  12.3671  12.3694  12.3743  12.3768  12.3889
    12.3932  12.3956  12.3994  12.4109  12.4157  12.4189  12.4217  12.4497
    12.4555  12.4589  12.4653  12.4662  12.4710  12.8432  12.8519  12.9655
    13.6802  13.6870  13.9896  13.9972  14.3661  14.3669  14.5870  14.5882
    14.9199  14.9221  15.2988  15.3018  15.3464  15.6422  15.6505  15.7835
    15.7907  15.9555  15.9610  15.9928  15.9995  16.0147  16.0230  16.3055
    16.3279  16.3322  16.6090  16.9672  16.9754  17.0656  17.0741  17.0877
    17.0973  17.2876  17.7503  17.7552  17.8320  17.8382  17.9429  18.0277
    18.3092  18.3146  18.8238  18.8417  19.1750  19.1909  19.2302  19.2318
    19.6713  20.0042  20.0078  20.1220  20.1241  20.2372  20.2634  20.2726
    20.2742  20.9764  20.9781  20.9989  20.9994

     the Fermi energy is    14.2484 ev

!    total energy              =  -37206.66273682 Ry

     total all-electron energy =  -1825151.275107 Ry
     estimated scf accuracy    <       0.00000049 Ry
     smearing contrib. (-TS)   =      -0.00050964 Ry
     internal energy E=F+TS    =  -37206.66222718 Ry

     The total energy is F=E-TS. E is the sum of the following terms:
     one-electron contribution =     538.66527030 Ry
     hartree contribution      =     400.35158232 Ry
     xc contribution           =   -1538.93785857 Ry
     ewald contribution        =   -3366.14800943 Ry
     one-center paw contrib.   =  -33240.59321180 Ry

     convergence has been achieved in  14 iterations

     Forces acting on atoms (cartesian axes, Ry/au):

     atom    1 type  1   force =    -0.00509087   -0.00365089   -0.00154225
     atom    2 type  1   force =    -0.00240601   -0.00343392   -0.00026338
     atom    3 type  1   force =    -0.00003205   -0.00564690   -0.00038573
     atom    4 type  1   force =    -0.00743899    0.00197842   -0.00068293
     atom    5 type  1   force =    -0.00034106   -0.00774123   -0.00086376
     atom    6 type  1   force =     0.01131848   -0.00065545    0.00253325
     atom    7 type  1   force =     0.00319656   -0.00326409   -0.00059737
     atom    8 type  1   force =     0.00256310   -0.00334262    0.00210668
     atom    9 type  1   force =    -0.00503002   -0.00179029   -0.00052428
     atom   10 type  1   force =     0.00094756    0.00334158   -0.00220561
     atom   11 type  1   force =    -0.00320334    0.00225707   -0.00006889
     atom   12 type  1   force =    -0.00391281    0.00238198    0.00089497
     atom   13 type  1   force =    -0.00054282    0.00481865    0.00084767
     atom   14 type  1   force =     0.00448122    0.01054865   -0.00163275
     atom   15 type  1   force =     0.01171706   -0.00467914    0.00142348
     atom   16 type  1   force =    -0.00168690    0.00898170   -0.00032715
     atom   17 type  1   force =    -0.00446213   -0.00295062   -0.00269404
     atom   18 type  1   force =    -0.00074685    0.00194255    0.00420632
     atom   19 type  1   force =    -0.00084048   -0.00179159    0.00534603
     atom   20 type  1   force =    -0.00404568    0.00037124    0.00298714
     atom   21 type  1   force =     0.00374350   -0.00360811   -0.00411712
     atom   22 type  1   force =     0.00185925    0.00077322   -0.00187172
     atom   23 type  1   force =     0.00739382   -0.00211830    0.00106118
     atom   24 type  1   force =    -0.00309244    0.00087976   -0.00184272
     atom   25 type  1   force =    -0.00582281   -0.00135189   -0.00306234
     atom   26 type  1   force =     0.00182770    0.00471753   -0.00154551
     atom   27 type  1   force =     0.00058180    0.00181978    0.00174263
     atom   28 type  1   force =    -0.00497697    0.00023634    0.00363649
     atom   29 type  1   force =    -0.00176626   -0.00151107    0.00471002
     atom   30 type  1   force =     0.00209687    0.00250213    0.00237368
     atom   31 type  1   force =     0.00743423    0.00080472    0.00184197
     atom   32 type  1   force =    -0.00316021   -0.00095673   -0.00205767
     atom   33 type  1   force =    -0.00680249   -0.00322196   -0.00841639
     atom   34 type  1   force =     0.00131156    0.00201038   -0.01015739
     atom   35 type  1   force =     0.00144105   -0.00517907    0.01198796
     atom   36 type  1   force =    -0.00803954    0.00331607    0.00492568
     atom   37 type  1   force =     0.00117871   -0.00301904   -0.00265985
     atom   38 type  1   force =     0.00570606    0.00348501   -0.00138682
     atom   39 type  1   force =     0.00407879   -0.00641988    0.00241681
     atom   40 type  1   force =    -0.00138344   -0.00209457   -0.00147964
     atom   41 type  1   force =    -0.00718670   -0.00129797   -0.00132449
     atom   42 type  1   force =     0.00066875    0.00240364   -0.00790438
     atom   43 type  1   force =    -0.00485075    0.00448072   -0.00015842
     atom   44 type  1   force =    -0.00711034   -0.00049163    0.00696837
     atom   45 type  1   force =     0.00232246   -0.00354814   -0.00482602
     atom   46 type  1   force =     0.00890249    0.00095759    0.00126944
     atom   47 type  1   force =     0.00955627    0.00024215   -0.00473859
     atom   48 type  1   force =    -0.00035534    0.00851425    0.00605746

     Total force =     0.051107     Total SCF correction =     0.002374

     Writing all to output data dir ./pwscf.save/

     General routines

     Parallel routines

   This run was terminated on:   8: 1:40   9Feb2024

   JOB DONE.